@relation 'UnivariateSEA'
@attribute feature1 numeric
@attribute class {groupA,groupB}
@data
0.332853474784498,groupB
0.7479382813444624,groupA
1.1088217335425865,groupA
4.082850955300814,groupA
3.3436497265077425,groupB
8.512429683406786,groupB
6.284000163171535,groupA
2.476189990121238,groupB
0.10631563122931342,groupA
9.326626471787403,groupA
1.280626824925154,groupB
0.5792581081885018,groupA
7.9075514956328865,groupB
7.245872697160531,groupB
7.225993596953769,groupB
0.9731759479562752,groupA
1.9789454383609295,groupA
4.883570215029308,groupB
8.121491282368863,groupA
6.6130497166839355,groupB
9.891013801241787,groupB
6.296963837314902,groupA
9.187234682211539,groupB
6.474704570182054,groupA
9.411623271880602,groupB
5.842876062991244,groupB
3.1891871838539965,groupB
3.7405274743087014,groupA
9.507473394862076,groupB
9.058518230967383,groupB
6.301870989898455,groupB
5.520927190803022,groupA
9.845302784713196,groupB
5.3151652198033075,groupA
2.536745155935305,groupB
8.061258173767126,groupB
9.25800537938039,groupB
1.7441076473177264,groupB
8.06937965991702,groupB
3.1239016569024605,groupA
5.963124501804468,groupB
0.1608980319530473,groupA
3.507731034144237,groupA
5.16193935056564,groupB
6.359156929127353,groupB
3.4252439807016843,groupB
0.8079559340417708,groupB
0.2586084923849341,groupA
8.69947775161455,groupA
0.9735077622453536,groupA
0.18086090882622363,groupB
4.183424629877571,groupA
8.293918043324174,groupB
9.845885174857411,groupA
1.9276211512766028,groupB
0.7430951883804882,groupA
1.7723196872559732,groupB
3.191999966353528,groupA
5.1528607603202525,groupA
2.658559418965676,groupA
5.739679466240968,groupB
2.3616153911985505,groupB
4.15043083066637,groupA
5.097768443834603,groupB
5.4545105989818605,groupA
6.749937769192041,groupA
8.83480091471412,groupB
8.700107372607581,groupA
9.28522373448602,groupB
1.641866382770174,groupA
5.760239521864006,groupB
1.2492554295977976,groupA
6.1768753500950835,groupB
3.552500907040781,groupB
4.360966950153139,groupB
9.237193392532495,groupB
4.444502570898729,groupB
3.752059898755802,groupA
0.35706245594782415,groupA
6.407142517755652,groupA
8.370160521018969,groupB
8.645571599833994,groupB
6.5706521056465625,groupA
2.3053308793964336,groupB
3.508152418989571,groupB
3.8985723897331903,groupA
5.421145008556793,groupA
1.0922869650606215,groupA
5.705001879386646,groupB
2.200562699259639,groupA
7.322092402118782,groupB
7.889238643228068,groupB
2.7444102163488737,groupA
0.47293438686898615,groupA
3.2594356713962513,groupB
5.1332952390354585,groupA
0.5784773569265333,groupB
5.385977725434715,groupB
6.6340844787455815,groupB
5.499293597137185,groupB
9.369285078714512,groupB
9.072691248954138,groupB
0.6122317316238424,groupA
6.473144205524159,groupA
3.32276700432348,groupA
3.831444085258233,groupA
9.824660209942742,groupB
7.531609109392537,groupB
4.551553426175778,groupA
2.9048754700777923,groupB
4.34034810602985,groupA
6.840817612457731,groupB
6.175901725324819,groupA
7.712244050311341,groupB
4.92752004206268,groupA
5.518366581037394,groupB
6.501345128950922,groupB
2.3940455526457316,groupA
0.19323565525594555,groupA
3.743219940799384,groupA
1.5565287979435638,groupB
7.492115161089936,groupA
2.2157522501834115,groupA
1.6191673476346313,groupB
1.4117870621337159,groupA
2.9203699772849303,groupA
9.67605415720179,groupA
5.820516773350713,groupB
9.624080648742373,groupA
9.059373993981342,groupB
8.648695265911886,groupB
0.13581918597177056,groupB
9.681380851758453,groupB
5.404249326778569,groupA
6.488785309122265,groupB
8.38344682923091,groupB
6.482681853131636,groupB
1.3761697086701474,groupA
4.481628906406221,groupB
3.4521026977518696,groupA
0.44049076970643086,groupA
9.932480658975647,groupB
8.903044310069037,groupB
7.914037844991883,groupB
1.7015878579389698,groupA
3.832949236690065,groupA
7.1393072958136194,groupB
3.60671102104992,groupA
8.938519550450126,groupB
7.7869897807075645,groupA
7.772332630672214,groupB
8.461548473432007,groupB
2.07689674959173,groupB
9.259973398435102,groupB
8.753174046220352,groupB
4.701694715524374,groupB
8.819057189624548,groupB
2.0906687365298984,groupA
1.63904849515361,groupB
9.203353553394622,groupB
7.748732489654488,groupB
1.9949967697637505,groupA
8.498430644156311,groupB
2.530383603922349,groupA
4.718486386825522,groupB
1.8258730897988462,groupA
0.6066507291087275,groupA
0.9658758750460184,groupA
6.9150474218564275,groupB
8.540983212993808,groupB
9.040954520108787,groupA
6.17789644611901,groupB
9.969236392278543,groupB
8.209648094537926,groupB
9.287951197618405,groupB
0.2135588264828625,groupA
6.447648869325008,groupB
1.1699974824507031,groupA
8.015392009005339,groupB
1.9039957684253006,groupA
9.472073300438934,groupB
6.325770893239459,groupA
6.220586899327957,groupA
1.9142703139628858,groupA
7.718007366583191,groupB
2.3391797379047596,groupB
0.5045822961425339,groupA
2.3621776615231385,groupA
9.022525976252773,groupB
8.5172081894571,groupB
2.6583035359351537,groupA
7.7774089830172555,groupA
9.87984997477067,groupB
9.981973554166197,groupB
6.976790458706846,groupA
4.140534250430825,groupA
9.53474419149891,groupB
9.33360616361611,groupB
7.601757463233946,groupA
3.6363865821148558,groupA
6.732508777662951,groupB
0.622544615230517,groupA
3.0610646997136968,groupA
3.7290627092505204,groupB
7.701790050971278,groupA
4.806946212467866,groupA
8.325123227316352,groupB
9.210038514761488,groupB
8.103434515681782,groupA
8.8335928523793,groupB
2.9023504071985995,groupA
6.32473851361366,groupB
3.664567801655024,groupA
1.4945132678001816,groupA
6.484873288263968,groupA
5.127916499692965,groupB
2.440245919920332,groupA
7.817525625565656,groupB
6.636832138976968,groupA
3.3798046603605645,groupB
1.232300195465298,groupA
3.0818411840240145,groupA
9.164667434071301,groupB
5.942298694723177,groupB
3.99213685592445,groupB
6.838227232528129,groupB
4.764295140216094,groupB
3.4803815963083364,groupA
7.105660972495466,groupB
4.379313185405182,groupA
1.915381889980814,groupB
3.8751495496348634,groupA
5.587414967285529,groupB
6.865422960789857,groupB
7.868129902721294,groupB
7.011627945341878,groupB
2.3993797506080905,groupB
4.2746134236816395,groupA
6.991866502531632,groupB
6.261149599347727,groupB
6.57840233741741,groupB
6.115902716684328,groupB
9.244929434893143,groupB
8.122336876953964,groupB
2.54433274743576,groupA
0.6192393749061542,groupA
4.568115937143197,groupA
0.048306013371355316,groupA
5.026874968978498,groupA
2.1856368435616957,groupA
0.5544613997045122,groupB
7.745982134476783,groupB
0.369844313309593,groupA
1.1308012531381284,groupA
7.730106494432932,groupB
9.305546044098252,groupA
3.6426804363510157,groupB
7.164077776801037,groupB
6.587115978207128,groupB
8.866876190084623,groupB
1.825117286734459,groupA
5.183850857844654,groupA
3.5006313093957573,groupA
6.462085180629308,groupA
0.36511777374291454,groupA
6.506712514496451,groupB
4.6697715868411125,groupB
9.839240466848068,groupB
4.394423291789354,groupA
1.8404957683622625,groupB
2.0430484478920152,groupA
4.966254584921877,groupA
6.791120173145188,groupB
1.5141901579567063,groupB
7.092335542378441,groupA
3.3736286688221218,groupA
4.793880026345833,groupB
9.638073152109396,groupB
4.520928176774283,groupB
0.20186021648219588,groupA
0.9062373126176382,groupB
9.026121327433222,groupB
1.2360556455959115,groupA
7.799282878878209,groupB
5.008349057426803,groupB
3.5046709776706866,groupB
6.858170554232918,groupA
6.838037732274258,groupB
4.763857748225706,groupA
0.38490541269101786,groupB
1.82101837938915,groupA
3.392647310451026,groupB
4.135188850141491,groupA
3.7143013150362436,groupB
1.8492368355573618,groupB
4.313960842835614,groupB
2.885080929382504,groupB
4.859712856147562,groupA
2.8640836656305657,groupB
9.931400489323599,groupB
7.847304289254328,groupB
1.0220451497428018,groupA
5.711721113295356,groupB
7.87264439284776,groupB
3.216080303474974,groupA
0.5430089974555441,groupA
3.5498320988646004,groupA
2.190010629375939,groupA
7.571132843565831,groupB
1.035504460718909,groupA
7.253560950096207,groupB
0.4584820485557606,groupA
9.481774276753276,groupB
8.241779807652962,groupA
2.265925426480233,groupA
7.836957640829522,groupB
7.695912332958704,groupB
9.482412531074488,groupB
8.344771955251618,groupB
0.8810436542506483,groupA
1.7140571970469887,groupB
1.0828766668973666,groupA
6.540616695232667,groupB
7.12540542546545,groupB
1.2887810688094814,groupA
8.325269067012087,groupB
3.3386606057060875,groupB
5.923050821214085,groupB
0.6098053731890318,groupA
4.436669378848696,groupB
3.543965663778285,groupA
5.8882524037761295,groupA
2.8859587117647276,groupA
0.6523822454381667,groupA
2.4800554976998335,groupB
8.53333802205628,groupB
1.1883245540477771,groupB
7.335461068190546,groupB
6.175651317852118,groupB
2.6551227259485155,groupA
0.9634653451759656,groupA
9.94071708385713,groupB
0.16816759873373166,groupA
0.895997235788969,groupA
1.9698552405674585,groupB
7.82287949889608,groupA
3.5610953264166714,groupA
7.203008438771512,groupB
2.6615331559207744,groupB
6.639461374181284,groupB
3.2092774357396,groupA
0.004797471300573841,groupA
7.586209637893627,groupA
0.6177332199413843,groupA
2.013942332437695,groupA
1.533906595874187,groupB
9.245075823941246,groupB
2.0642396601848576,groupB
6.899515890424768,groupB
4.397358093501511,groupB
5.3615640703526175,groupA
6.110578883992927,groupB
3.1967682425843877,groupA
5.141940241109183,groupA
2.628275445282765,groupA
6.320421041587448,groupA
7.9205896494082,groupB
3.916445578969391,groupA
9.965884604644517,groupB
5.0335155112836825,groupA
0.3232189811069308,groupB
4.489093165212671,groupA
1.074556843154273,groupA
3.389978999252735,groupB
2.611378980153293,groupB
9.766157434469525,groupB
4.745418773888729,groupA
3.153487633294639,groupA
0.7936072854613252,groupA
1.852825185086735,groupB
5.903917784477489,groupB
2.6198815355568184,groupA
7.195911675398903,groupB
9.7186418562689,groupB
3.77413521654955,groupB
5.036642894033154,groupA
4.642324326731143,groupB
1.140478151998311,groupB
0.6977905850794752,groupA
1.6410013203393825,groupB
3.003298093213136,groupB
3.102398897385179,groupA
5.046950342903881,groupB
5.316054833960173,groupB
2.599252511247977,groupA
7.884524316997181,groupA
0.08730767569404607,groupA
1.2250553623358396,groupA
4.607788382177652,groupA
2.1660934098657183,groupB
2.550033108526369,groupB
9.967391958255263,groupB
5.428690396618841,groupB
7.439347025842844,groupB
6.744056096235138,groupA
7.753094405229138,groupB
2.147191374110977,groupB
0.5622058307443001,groupB
3.1954281424559348,groupB
8.85687176671647,groupB
7.508134242721231,groupB
9.394384197102633,groupB
2.663098718672132,groupA
3.8225840420354293,groupA
0.8454727169602383,groupA
6.032734164931243,groupB
3.7966996425029107,groupA
4.273113148505313,groupB
2.345582007464335,groupA
7.40011004002721,groupB
4.236250373164749,groupB
2.061128758601903,groupB
0.9704298432060254,groupB
2.9045504618262785,groupA
3.3892390408638717,groupA
8.28925799948342,groupB
5.907860814281869,groupB
1.9724622609424758,groupB
9.959299039882989,groupB
1.4434088102664588,groupA
0.09991617177727563,groupB
0.7149117082168921,groupA
7.263347037617052,groupB
4.624004842519596,groupB
5.243800198246525,groupB
9.397976052982871,groupB
4.900060340493917,groupA
9.323919660557099,groupB
6.650167997956444,groupA
8.188005867284227,groupB
1.0801382753394462,groupB
8.179958289900728,groupB
4.934908347526575,groupA
2.606009564907633,groupB
7.274864407942704,groupB
6.001608275916814,groupA
9.137362170082595,groupA
6.871315439140514,groupB
6.379785630766406,groupB
7.634967008308013,groupB
2.3925302745513246,groupA
9.806104610656085,groupB
9.639272051880969,groupB
1.9235286188463419,groupA
9.598617573332046,groupB
6.015960635934022,groupA
2.668559734344961,groupA
3.3468867647348777,groupA
4.94429981461845,groupB
3.8076507787298564,groupB
0.2945202983298578,groupA
0.6131465531601221,groupA
1.9912218173827112,groupA
9.748085863593293,groupB
6.085584818148927,groupA
4.40447070273538,groupA
7.014023230334306,groupB
9.245672669257686,groupB
9.544405269861539,groupA
3.074940083433341,groupB
7.21895122506635,groupB
9.228732426293451,groupB
0.4021747160604183,groupA
4.916856371513347,groupB
4.49796023694823,groupA
6.4306967054279465,groupB
0.40800540337102786,groupA
1.7804638001333561,groupA
5.7019258017326555,groupB
6.337542518243479,groupB
2.796074818653065,groupA
0.5813819471057091,groupA
5.676797562253794,groupB
9.222292971200245,groupB
4.30186072377075,groupA
4.382050664356899,groupB
6.111521595569486,groupB
1.4410191918730542,groupA
4.469882597154916,groupB
2.2042320820210604,groupA
3.6764371390053308,groupA
0.19503015993532546,groupA
9.050919434955842,groupB
9.02884992565858,groupB
5.034436283418393,groupB
6.018967603331474,groupB
4.747375543139426,groupB
3.170678105481807,groupA
4.602049274015513,groupB
9.422224849567668,groupB
9.37076797822587,groupB
4.575911111358117,groupA
6.910088859168544,groupB
1.3231243512756408,groupA
6.783426569064862,groupA
2.8714433843146336,groupA
8.018671242305754,groupB
3.446998624305717,groupB
8.684367790450896,groupA
0.0805379413002183,groupA
6.603107418770496,groupB
6.829881694145485,groupA
3.4626433612571725,groupB
7.788991054423544,groupB
2.437956415306748,groupB
8.441809929064982,groupA
5.794719646731129,groupB
8.771156284590898,groupB
8.427736916584628,groupB
7.024393558518987,groupB
3.438816609375177,groupA
6.33229476640678,groupA
7.894508977987613,groupB
6.176753542145875,groupB
0.5305837686058468,groupA
2.152453622313767,groupA
5.333582604260245,groupB
2.0162516639103547,groupA
9.581719442133908,groupB
2.580920112754556,groupB
0.5565688584875961,groupA
3.2235746163804557,groupB
9.015582937625627,groupB
0.0765598731039574,groupA
0.2921723038886803,groupB
6.637301511307121,groupA
5.349750535826095,groupA
7.859012335979685,groupB
0.6146383011484102,groupA
2.816474811072717,groupA
1.6817238116474464,groupB
2.4635620525966684,groupA
8.691414627131223,groupB
4.0100654746452244,groupB
8.796369492006797,groupA
7.507046114314253,groupA
4.427966006832726,groupB
4.9724347536341895,groupB
5.556571510221181,groupA
7.895654529337309,groupB
5.750088742560187,groupB
3.1006253350775315,groupB
9.045220451442312,groupB
3.353962969599711,groupB
5.08264184422641,groupB
3.8429148969199964,groupB
6.699015491779328,groupB
3.5377445134476138,groupB
6.607098373339493,groupB
5.482713000147151,groupB
6.133302364929781,groupB
0.2145889217526642,groupA
2.126373659031897,groupA
1.8254388889215512,groupB
8.941769745938151,groupA
9.753350972571731,groupB
8.82028714905986,groupB
4.4401424590091185,groupB
2.123488350255547,groupB
7.246983018205146,groupA
1.2938507551454004,groupA
7.707702395090548,groupB
1.3194521536613957,groupA
1.3881447266230662,groupB
7.527199224317394,groupB
9.62261118844086,groupA
9.32715356982854,groupB
2.201643713132727,groupA
8.522927715631651,groupB
1.048492317653893,groupA
8.719292635803491,groupB
5.9844975491380925,groupA
2.4752387244061747,groupB
2.7452901923704753,groupB
0.3546258662152746,groupA
8.479255868065804,groupB
9.485686477496866,groupB
7.118842517517274,groupB
8.387218028905961,groupB
7.168924542513996,groupB
3.521271338188212,groupA
4.285507288927875,groupB
4.52562286367157,groupA
1.4859331984969015,groupA
6.219767234947113,groupA
6.033492015711424,groupB
8.955273314613283,groupB
9.120314025842426,groupB
7.030776248301136,groupB
7.780225140910701,groupB
5.92379604880001,groupB
2.0346742663990955,groupA
6.244181343565226,groupB
6.19685008379801,groupB
8.627031997217417,groupA
5.380362346984567,groupB
9.87424648825514,groupB
7.165903145441036,groupA
0.06895158150002301,groupA
0.48901445092401574,groupA
6.7801527942708075,groupA
5.869317821860353,groupA
5.06586032553689,groupB
2.308639986826541,groupA
0.42360455105635797,groupB
3.627719746178176,groupA
8.807473861557472,groupA
5.979625891277513,groupA
7.371362182732142,groupB
7.528954208600929,groupA
1.3765974609970721,groupA
4.213234650224793,groupA
7.093986238781494,groupA
1.638033013838881,groupB
6.585930010671774,groupA
0.34687773275062894,groupA
8.309289013122898,groupA
7.760111257047841,groupA
0.3544177630520673,groupB
3.603933621976875,groupB
4.556315213359056,groupA
9.264331628777894,groupB
5.774786043800794,groupA
6.472139639634058,groupB
9.818186549466844,groupA
0.6448133186436877,groupA
2.8953482216734896,groupB
6.118417036885334,groupB
5.763680589577192,groupA
5.414836042700811,groupB
4.148619044452021,groupA
5.3578736918028405,groupB
7.940543543585289,groupB
5.0642833892192005,groupB
6.121111644586915,groupB
5.462959563467761,groupA
4.389592518321327,groupB
6.465287116272096,groupB
4.006162337823342,groupB
5.7013277602393195,groupA
7.487717040037188,groupB
5.9371738053843135,groupB
2.366673279725784,groupA
9.187642333143252,groupB
7.168785049844581,groupB
6.673358036425865,groupB
9.727975751753643,groupB
3.7789066808418434,groupB
0.28175114472457574,groupB
6.22768588798567,groupB
1.7120714119270275,groupB
1.2821020800924998,groupA
8.961301293787733,groupB
0.9375124760664377,groupB
8.821482223632216,groupB
0.21806585031087122,groupA
8.213223078630937,groupB
0.5509145975114937,groupA
8.210811862270525,groupB
2.4313537345888014,groupB
5.128179794339283,groupA
4.795022372697303,groupB
0.6925700038860649,groupA
3.680834523876891,groupB
5.376284789839241,groupB
2.3843873483394695,groupB
3.3753153516875525,groupB
3.312241913439391,groupA
6.012140614606551,groupA
5.079252818376132,groupA
7.50990759894102,groupB
9.617844874053201,groupB
1.7158976536788118,groupA
5.263912225971006,groupB
9.825604654917763,groupB
0.5395902290414578,groupA
6.959240254595929,groupB
5.369206258237788,groupB
2.5925784423545704,groupB
5.074006894613517,groupB
2.2335880114715403,groupA
3.898486867076103,groupA
3.2906245890776176,groupA
8.787134481176388,groupB
4.397553332287444,groupB
3.264715542375547,groupB
3.7535865149974956,groupA
8.036732527923117,groupB
0.8468742872493995,groupA
3.883163971750151,groupB
2.3722891890055466,groupA
6.211841238621374,groupB
4.006506449058933,groupB
1.6085604811837995,groupA
1.9712462813300868,groupA
2.0148849403706492,groupA
6.483850358413675,groupA
8.620406727603168,groupB
2.6405560088787383,groupB
3.6012263158912505,groupA
0.9655768173612012,groupA
3.0521753848992796,groupA
9.6374171393879,groupA
3.4213838478658696,groupA
0.918234027987489,groupA
9.179609406103994,groupA
4.723526627517134,groupB
0.6418090817831745,groupA
4.663638840246258,groupB
6.824508620486655,groupB
7.445999280023667,groupB
0.9046763283912451,groupB
3.2115175619454717,groupA
7.131100125603367,groupB
5.089780322486583,groupB
5.372846794198594,groupB
1.080325254393374,groupA
8.213978168315602,groupB
4.737058322992375,groupA
2.0340356266020887,groupA
4.427689762122704,groupA
1.8850824745214434,groupA
3.1908469322148294,groupB
5.243015509086031,groupB
5.3183470542108555,groupB
5.111366627383603,groupA
4.801400625416626,groupB
3.6909254421536364,groupA
8.522320744224768,groupB
2.7476107993420107,groupB
9.539931388106773,groupB
0.22871493028713608,groupB
4.47078790639196,groupA
1.9868832126667435,groupA
4.277375718715857,groupB
8.153426398855977,groupB
0.9816338332238383,groupA
1.7748389789691255,groupB
6.148701219916537,groupA
0.20119173297078463,groupB
7.149980219003197,groupB
9.887515237573481,groupB
4.336131707819307,groupB
7.182993724172084,groupA
5.898514999469028,groupB
6.563422657755026,groupA
3.527157845831491,groupB
0.1456950848688976,groupA
0.5846322729506248,groupA
1.441178602970441,groupA
0.8535075194887021,groupA
1.432572613797124,groupA
4.721238127870965,groupA
2.3590885549730487,groupA
7.172307768908324,groupB
7.939385895638082,groupB
9.209466523998287,groupB
2.4420688858552198,groupB
1.2061924982848826,groupA
2.192370712457594,groupB
5.897012947448093,groupB
0.29703798374132395,groupA
1.1295608650075961,groupA
0.185743822395239,groupA
0.12670110372182464,groupB
6.367009053259835,groupA
6.706743755050634,groupB
6.874347446452131,groupB
4.056292543414902,groupB
3.2069766686282772,groupA
6.806479067808802,groupA
2.081730301024709,groupA
0.7112869569944602,groupB
5.13547157020691,groupB
2.0065023729963416,groupA
8.708750543610076,groupB
0.24510038617691632,groupB
2.2222198471039722,groupA
1.751707501001064,groupB
7.459979159798291,groupB
1.9618876467071178,groupA
8.576353165959356,groupB
6.047398223123171,groupB
4.88579040866684,groupB
1.0114712185135188,groupA
6.426447294718511,groupB
5.5826188265701795,groupA
5.001802280466313,groupB
7.967175067778324,groupA
6.402464007616003,groupA
3.3330944859498546,groupA
5.822813054102593,groupB
3.888423890159136,groupB
3.953336186976879,groupB
8.653407556587801,groupB
6.157817196337484,groupB
7.062079359557739,groupB
0.019087369482038152,groupA
9.416868410094434,groupB
1.3720938388463322,groupB
9.989713113166715,groupB
6.323429491355829,groupB
3.401074330275049,groupA
9.541515877143045,groupB
3.8912261504411805,groupB
7.205855136341551,groupB
0.5680853546165099,groupA
7.606646115373913,groupB
1.0459363634832608,groupA
8.359246637105311,groupA
8.589939049233111,groupB
5.477106846269081,groupA
3.6768551339249997,groupB
0.6115747482562695,groupA
4.581065978594422,groupA
0.3311959956753985,groupA
8.257402072108649,groupB
3.763780692990848,groupA
2.896033278931186,groupA
2.986486638052418,groupA
0.5061061285193769,groupA
1.0895361229371436,groupA
7.629613430457902,groupA
8.662747961761104,groupA
3.8264861472913534,groupA
1.3791636678582742,groupA
6.4309130852162575,groupB
9.791204013133934,groupB
0.40762722962902953,groupB
9.176214632457079,groupB
0.9474065460678571,groupA
3.9099258664711654,groupB
2.9560403343537778,groupB
9.261428223570029,groupA
6.900152207556953,groupA
3.883799918577563,groupA
7.3800455469007185,groupB
2.479176857755432,groupB
0.9289285424949612,groupB
5.552544880289671,groupA
4.461741427869078,groupA
3.013930831974595,groupB
1.124962273286959,groupA
2.888922111363269,groupA
6.364910659005454,groupB
3.390393024295102,groupA
6.997547664716257,groupB
7.38262948987642,groupB
1.94509399173862,groupB
1.3161425222426415,groupA
2.626103618102814,groupA
4.788126553017093,groupA
1.4243082840170918,groupB
0.37903855240872253,groupA
3.2768232290906774,groupB
2.815363840916816,groupA
4.710134129266653,groupB
5.2661534877168705,groupB
1.8774437023276613,groupB
0.623296027166772,groupB
0.08841144171596538,groupA
7.143269653632558,groupB
2.7280602251434227,groupB
9.013222083981402,groupB
8.280706519924145,groupB
9.024383061853449,groupB
7.682229290030609,groupB
6.522119499894426,groupB
5.980820611782855,groupB
7.113343242470396,groupB
5.981592391000304,groupA
4.788796255809249,groupA
8.486512428996383,groupB
7.302618155418372,groupA
5.908339796144562,groupB
8.805095455827292,groupB
1.4096190780855478,groupA
6.198838387018083,groupB
1.5912233116630858,groupB
7.261599132343908,groupB
0.6349625354851729,groupA
0.4866532093384768,groupA
5.539488316706383,groupA
2.0370303235237808,groupB
9.62964895020047,groupB
4.260637012641283,groupB
9.880709226111616,groupB
6.941391626687208,groupB
6.272187049291792,groupB
0.6124407239744445,groupA
1.6575494854715445,groupB
5.6770296992554705,groupB
2.936591904537514,groupB
5.563700731717475,groupA
8.928126166981002,groupB
0.29534528007164274,groupA
4.460390228453713,groupB
1.0348003143941464,groupA
0.5668853227716675,groupA
0.4594838145164426,groupA
7.646014551796117,groupB
0.4295817126954782,groupB
8.548402463318507,groupB
2.928616747275483,groupB
2.3600626231423982,groupB
9.434380184804168,groupB
3.8047524887693496,groupA
0.8045756140976257,groupA
0.34062164776460624,groupA
4.457987743221885,groupA
6.386270646971481,groupB
5.267679482348859,groupA
1.2043917019941763,groupB
7.8027003302751545,groupB
5.2525697193289975,groupA
4.410345661896836,groupB
1.536530408068737,groupA
8.024617569365182,groupA
9.421327102781445,groupB
6.083019741433776,groupB
8.48953921308334,groupB
4.226751925851894,groupB
8.971036832224167,groupA
4.7193705707328215,groupB
3.1244663627479308,groupA
7.287870599351148,groupB
4.31385521555744,groupB
7.322572053821594,groupB
5.378286762850949,groupB
9.663763178585603,groupB
4.727788546380122,groupA
6.181623789191972,groupA
4.5843509227952115,groupA
8.6499287057642,groupB
1.0845115193496924,groupA
6.5495351255477985,groupB
9.92587014105329,groupB
8.453385533298894,groupB
3.469477988463421,groupA
6.151105615225313,groupB
0.05183710268651942,groupA
1.5180928397538096,groupB
6.622932593815268,groupB
0.7879724337525551,groupA
1.7856594687520677,groupB
4.058697938401342,groupA
6.2108859200210675,groupB
0.8573396827740976,groupB
3.8329188248112733,groupA
9.300154495050355,groupB
7.459771720788503,groupA
7.7768691012476445,groupA
2.538667242270164,groupA
1.459056290677363,groupA
6.971852388318131,groupA
6.183858384888305,groupB
5.917827729466714,groupA
5.842967439647964,groupB
5.113626956190975,groupA
7.518084730970278,groupB
7.714692156845643,groupA
4.736973103012526,groupB
3.4885324533963766,groupA
6.964304736884708,groupB
1.4379988965353785,groupA
3.9862794304787066,groupA
2.1387776292429503,groupA
8.575899702412928,groupB
1.9342387328625499,groupA
2.7078334604118357,groupA
8.458680763201192,groupB
1.1728001499613738,groupB
8.83997462834445,groupB
4.554271195063835,groupA
2.751596752978646,groupB
9.845628894948147,groupB
7.399178569032721,groupA
6.935411655176629,groupB
9.051373869120585,groupB
7.738743531555161,groupB
0.8176854495467145,groupA
7.945142575900636,groupB
8.602961209006137,groupB
9.456032418141511,groupB
8.196446855398671,groupB
5.157780870473786,groupB
3.319779378565201,groupA
8.75721750063294,groupB
9.749633127766456,groupB
6.504476682705759,groupB
7.8909347888946915,groupB
8.105024800555302,groupA
8.552898786616504,groupB
9.017356129665092,groupB
9.001286568011796,groupB
8.594699142357884,groupA
5.5300705157813965,groupB
4.081001439529124,groupB
4.572452426610514,groupB
4.450447480263268,groupB
2.2907736958004743,groupA
8.045447750273851,groupB
2.972515435573002,groupA
3.8057852125785505,groupB
8.263359846695037,groupB
9.563759561606739,groupB
3.934686943033184,groupA
5.187435528193096,groupB
3.2820482606838377,groupA
2.095844382569351,groupB
8.34742601908416,groupB
8.88015681026795,groupA
1.308260952256699,groupB
3.787590515461371,groupA
1.2262313016881499,groupA
2.1411747432099015,groupB
2.686283751394938,groupA
1.8535864560645476,groupA
0.8649474581594285,groupA
3.6300268614385853,groupA
1.6139860567288922,groupB
3.9692157427461847,groupB
1.425184214773807,groupA
3.088610479620415,groupA
8.180404321191164,groupA
1.6642292244926171,groupA
6.808258194335703,groupB
8.50682606245803,groupB
4.182431055358351,groupA
6.799109112261686,groupB
0.5356825561593148,groupA
2.094937336711271,groupA
3.250167396759286,groupB
0.7355361475649891,groupB
1.2310423977632345,groupA
4.301901731062965,groupB
5.82107254798339,groupA
0.4647298445884618,groupA
2.0563683633405807,groupB
8.91046185446668,groupB
0.9119199924792587,groupB
7.757684946773188,groupB
7.736758497668021,groupB
2.539516941754214,groupB
0.11860044722268426,groupB
7.218578042543541,groupB
6.453742684817132,groupB
5.420697411426074,groupB
5.969556732838608,groupB
0.16970808750501498,groupA
9.46515451973864,groupA
2.4114549584754874,groupB
0.7804305644820575,groupA
1.6299304292883754,groupB
6.600304260961013,groupB
0.2773156492765061,groupA
3.0854322979850215,groupB
2.669031290162429,groupA
5.285967889933618,groupB
9.331048721942208,groupB
4.103821073533824,groupB
5.372001953522081,groupB
8.201823794199306,groupB
0.659844785448237,groupB
4.5552983385216175,groupA
0.11761125327121147,groupB
5.482955196022278,groupB
9.100469534891149,groupB
3.4523980314240275,groupA
7.296667700574144,groupB
1.2400642192128253,groupB
2.6277712256254624,groupA
1.726172721206295,groupB
7.742319598736728,groupB
7.432092820115786,groupA
0.2886287783081476,groupA
9.107464192854808,groupB
7.636774413784405,groupB
6.396703213250815,groupB
8.719963972465296,groupB
7.482372100473062,groupB
6.458855794997361,groupB
3.936000232686875,groupA
5.7080555411171865,groupB
5.828558247782426,groupA
7.451456087093938,groupA
9.30117047946792,groupB
3.343110981679941,groupB
4.148765888100883,groupB
3.2676140181465785,groupA
4.9723362059452025,groupB
1.8576373829002912,groupA
7.848292314399906,groupA
8.892764696917254,groupB
5.259567767522721,groupB
3.0631185368649536,groupA
1.5216430991000995,groupA
5.976571911694739,groupB
7.647121845300722,groupB
2.864116205246656,groupA
6.856589149011315,groupA
8.52231314540559,groupB
7.87378611890977,groupB
0.17319320516511638,groupB
3.53640525556283,groupA
8.000405849965343,groupB
9.114648681661373,groupB
2.8087588506107197,groupA
2.7970068898612386,groupB
4.744520769536253,groupA
6.649397622591672,groupA
3.8595887781067137,groupB
9.317632522701523,groupB
2.666679817119628,groupA
3.133833773369381,groupB
7.366627129550773,groupB
0.002928003636222254,groupA
1.4484384729942879,groupA
1.317840488528097,groupA
3.9207689715617344,groupB
5.0308935847906735,groupB
7.329099211153079,groupA
2.7765840034618106,groupA
2.4143936879761685,groupA
2.3439545555285743,groupB
3.163030032059515,groupA
4.162880004055576,groupB
7.31800116811417,groupA
7.067000026600963,groupA
5.644451123688297,groupB
9.586937168319356,groupB
3.678666113810445,groupB
0.6329432992903539,groupA
2.431164140003622,groupA
6.143275336747644,groupB
7.845159518256979,groupB
4.638235717592027,groupB
1.6140076750199084,groupB
3.2104508850851063,groupB
7.600290904198419,groupB
3.5616832518560426,groupB
7.695472692298794,groupB
8.043035688133227,groupB
3.9027878536848104,groupA
0.8524170273078346,groupA
1.4217970926193835,groupA
5.171512542550499,groupA
9.38113312574288,groupB
9.888297564384423,groupA
9.764619063466105,groupB
4.257602577972355,groupA
8.746230413616003,groupB
5.754468230689547,groupA
8.721294156745637,groupB
6.071944781541795,groupB
9.658337594974997,groupB
4.4920354125572235,groupA
6.891404626345232,groupB
4.138752668042706,groupA
1.649910847876832,groupA
2.686526850280042,groupA
5.828722215968806,groupA
7.0174890648013815,groupB
6.417093598932771,groupB
4.2411899752457725,groupA
2.644542185479848,groupA
4.072957699033349,groupA
7.189602006437412,groupB
0.6164186269732652,groupA
7.275296178531699,groupB
3.5494482426546403,groupA
3.606443692041891,groupA
1.3874627703539733,groupB
7.093809002665431,groupB
2.657407431494768,groupA
3.291792873154299,groupB
9.820673382000592,groupB
3.3523802923706536,groupB
3.7669741796744183,groupB
2.4636876636619878,groupA
2.405168082850162,groupA
0.35368218525166695,groupA
1.4648373041304397,groupB
6.8340326982766975,groupB
6.482077372165625,groupA
9.652672577238254,groupB
1.67118938939255,groupA
5.781457126373882,groupA
8.836254069279796,groupB
8.243455386530039,groupA
4.952767285900512,groupA
8.402386872546934,groupB
3.373088557006657,groupB
4.1671704935737015,groupA
2.045535805140435,groupB
9.267538416541433,groupA
3.7821914740116136,groupA
2.722221641191398,groupA
5.074710677214225,groupB
5.321912512444161,groupB
8.845271040001641,groupA
6.241808797693489,groupA
4.4074433348636255,groupB
7.7510518427983595,groupB
3.201360007145706,groupA
4.844998522639008,groupA
9.090355582239887,groupB
4.273327120181376,groupA
4.831224726425807,groupB
1.6293103600696235,groupA
0.724620458398515,groupA
7.279600269717123,groupB
5.125641096996261,groupB
5.261664043529923,groupA
2.9486888705095184,groupA
1.6938034276555103,groupA
6.489327101453744,groupA
4.990917356068609,groupB
4.684964240306414,groupA
7.130519965160533,groupB
2.302505431470662,groupB
6.743261101001192,groupB
7.432472454626467,groupB
1.7320958100853046,groupA
1.4829202270011888,groupA
5.509325681594087,groupB
9.34229725423083,groupB
8.42538249721088,groupB
4.598956097850073,groupA
4.870619412977336,groupB
0.0044429117606936686,groupA
7.787966706856482,groupB
5.684412288110168,groupB
2.7682741182784465,groupA
4.930837670822264,groupB
8.39041017726683,groupA
6.771274528094859,groupB
6.858132927449828,groupB
1.9850562792763016,groupA
4.613143658778746,groupB
4.331086059805525,groupB
8.735890251989122,groupB
9.54951462800116,groupB
1.3464856664064195,groupA
4.909588395633565,groupB
4.510926106329856,groupA
8.318553521312598,groupB
3.5858122735893847,groupA
3.3332382689861237,groupB
7.558024668121185,groupB
2.262939525577521,groupB
9.24094846162182,groupB
1.0088577591792636,groupA
5.526525215916122,groupA
5.748571838899568,groupB
4.092902796396503,groupA
4.546599836957319,groupA
7.924458359934393,groupA
0.9490569707219876,groupA
5.9493909151186415,groupA
9.697963324858454,groupB
7.752549109396095,groupB
4.726486539310826,groupB
8.964208652789358,groupB
1.3698166453824423,groupA
3.0149983553790847,groupA
5.944187109399151,groupB
0.6791779712732138,groupA
4.176145917280606,groupB
3.5998203959637545,groupB
0.8151159841582345,groupA
1.5996272781063448,groupA
7.014095427079804,groupB
0.46412233448346996,groupA
5.1943898909840405,groupB
6.597434770367867,groupB
9.861132326488452,groupB
6.5856883003319835,groupB
2.727375485559546,groupA
6.8155897949769315,groupB
7.215954395367682,groupB
9.401971972691728,groupB
7.2177737613931345,groupB
1.2847563374486615,groupA
4.1458626599084685,groupB
8.94524981971298,groupB
6.453925809633038,groupB
6.509002545304986,groupA
2.025336022437938,groupA
3.436137336360506,groupA
4.7155791305047625,groupA
5.78191386513941,groupB
8.990803557107537,groupB
8.398537207272323,groupB
8.185801950547777,groupA
4.996799163379877,groupB
7.600177211422242,groupB
7.432812977325641,groupB
4.14057059585245,groupA
8.850347858851142,groupB
9.846418879596904,groupB
3.4996422203487576,groupA
2.927477677251354,groupA
7.336456709664867,groupA
8.67485659980238,groupB
2.137547278575341,groupA
4.939472667653481,groupB
2.608248896488962,groupA
9.605442730611424,groupB
0.5191279040166918,groupA
0.822759636024839,groupA
7.067605093270894,groupB
5.543763592676017,groupB
4.044948155459532,groupB
6.531886696578207,groupB
4.932548055732784,groupB
9.927178411252072,groupB
0.5239752318357627,groupA
9.280365457380535,groupB
7.6371150640195555,groupA
6.012566254690574,groupB
8.483350714551158,groupB
1.37133468649423,groupA
2.9331527028147955,groupA
4.35612685827591,groupA
3.2197010030357367,groupA
5.987993414188191,groupB
4.279826536455448,groupA
2.818584511352915,groupB
1.624587123568375,groupA
8.65477124537491,groupB
0.40927706603849257,groupA
8.17482312567411,groupB
4.207172151482484,groupB
5.843142669753817,groupA
0.32433225778274566,groupA
0.5079943693771249,groupA
2.0606458672349337,groupB
5.405114761722092,groupA
0.48873560345338074,groupA
8.885841636935874,groupB
4.582037209119413,groupB
3.7058936359288532,groupB
3.778008341096941,groupA
2.681430546278303,groupB
4.708145595950085,groupA
9.747048255291189,groupB
2.6295813783959177,groupB
8.610503856276665,groupB
6.267578713668847,groupA
4.693319651148162,groupB
6.617742423301567,groupA
0.880869827724875,groupA
9.108188496484228,groupB
5.229543842760483,groupA
0.8294865454259237,groupA
5.521907460808627,groupB
3.1221890204042246,groupA
4.487141155017014,groupB
0.47257914484319263,groupA
0.18951511908080532,groupA
0.6833004206812243,groupB
5.019270146081776,groupB
7.241779708690915,groupB
5.697464239326868,groupB
6.700557362513764,groupB
3.8157015495682725,groupB
8.331762957437867,groupB
3.852722378129485,groupA
7.1948042368921055,groupB
0.6972421010287455,groupA
2.4380681923814054,groupA
9.481223838119877,groupB
6.573047624490675,groupA
3.8982847142833146,groupA
2.5464348312375495,groupB
9.90184399608897,groupB
3.513115725110044,groupA
2.2367773306891925,groupB
0.2858912484063436,groupA
7.5888269694671635,groupB
8.320638187639654,groupB
3.204253279967096,groupB
4.7154891900401505,groupA
6.874190216728322,groupB
5.870089028837949,groupB
3.524027615944277,groupA
1.8258629359417122,groupB
1.7680187526879543,groupA
7.723185737056361,groupA
0.3814411687894004,groupA
3.055880403861193,groupA
3.271134550653648,groupA
2.0066798472713208,groupB
1.5030525089125402,groupB
8.636283358062022,groupB
2.8452273901734393,groupA
7.24666259519998,groupA
3.647681041053188,groupA
7.554918847349503,groupB
6.382723860741921,groupA
6.060839349431797,groupB
6.685612528290504,groupA
1.9642068469073504,groupA
5.443788951828447,groupA
0.710412697274635,groupB
3.3163065250367527,groupB
2.5868715145564014,groupB
0.5309750234023614,groupB
6.6596857633145365,groupB
8.36155527243989,groupB
9.380477157451132,groupB
3.5519841444282987,groupA
3.9783574627165375,groupA
1.4409186888836256,groupB
0.7484437655195786,groupB
2.6453731408136685,groupB
3.4866457916340954,groupA
9.378874220904573,groupB
5.8822505581860876,groupB
4.44912224558907,groupB
3.668476681485593,groupB
0.8166611931558165,groupA
0.42748827665993416,groupB
4.382911372975879,groupA
1.5883981891027732,groupA
2.8332263879639754,groupB
1.2200469684238024,groupA
0.26549366790902473,groupA
2.2127774145144974,groupA
4.7647008926948065,groupB
3.066543962497892,groupA
4.741344029454667,groupB
3.868089686561774,groupA
6.414888974879984,groupB
9.76738253228109,groupA
6.657085190973682,groupA
6.125356682422803,groupB
9.253562124990223,groupB
4.21758625038077,groupA
5.2881469628642455,groupA
0.5804390974983764,groupA
9.506849225202771,groupA
3.4795527324653808,groupA
6.718533556103344,groupA
5.049053487842535,groupB
9.975420085849152,groupB
5.306624578186529,groupB
1.7390145931510659,groupB
0.2009795210122045,groupB
3.4109166298134843,groupB
2.4041542267415528,groupA
5.3378671716594885,groupB
2.051576656750952,groupA
8.997407097663256,groupB
0.536553729478515,groupA
0.6685451355840843,groupA
8.785835053010175,groupB
6.299453598725394,groupB
0.8094417313492019,groupA
4.714168814715697,groupA
0.7298841128325484,groupA
8.547443847437792,groupA
5.553931908716619,groupB
8.62209566765371,groupB
4.870066025652045,groupB
1.6485225787043423,groupA
0.2876429829414062,groupB
5.714366407534724,groupB
1.9569830726075221,groupB
3.3710558434201388,groupA
1.3901198438476559,groupB
2.8216199943202422,groupA
4.071757881800898,groupB
2.003951651073246,groupA
4.168857615524249,groupA
2.137939393760402,groupB
2.5682073469385314,groupA
7.910089801923087,groupA
8.759485841005004,groupB
8.019623830373849,groupB
1.875670227210967,groupB
8.96502346536701,groupB
0.2471922260949111,groupA
5.788404657729888,groupB
9.934421314641682,groupA
0.3062025985590189,groupA
4.057145363878797,groupB
2.85420566679099,groupA
4.56440125916572,groupB
5.2411933557568045,groupA
1.1742941861045941,groupA
9.518025324384396,groupB
0.20749036151490818,groupA
1.9214389191919845,groupB
9.345965732991342,groupB
1.294477112282152,groupA
6.946666245853688,groupA
5.545449545981953,groupA
3.916462641206342,groupA
3.117262037428512,groupA
4.048747782400989,groupA
8.69517888628558,groupB
4.257339454603384,groupB
0.43948691276826546,groupB
1.4014276382069857,groupA
9.933628063868383,groupB
1.4000315625920068,groupA
3.063070019484319,groupA
1.8640765367842305,groupA
9.221177522375726,groupB
8.052488908369197,groupA
5.0450958823341665,groupB
5.813253205576108,groupA
5.982201663489621,groupB
0.885736967600631,groupA
1.7202129751834816,groupA
0.969619770575807,groupA
3.930381627844781,groupA
5.100833743952368,groupB
1.7020851498082856,groupB
8.218424451031563,groupB
4.9177588533273475,groupB
4.716291958681184,groupA
4.607354704399347,groupB
9.700022512070024,groupB
0.20465641089332465,groupA
6.729217693622297,groupA
1.5751022525458913,groupA
3.412952897898378,groupA
1.4696013843877909,groupA
9.87241259827281,groupA
5.794758381809371,groupB
8.246493037912071,groupB
9.623508898537525,groupB
6.780556282583094,groupA
0.035881044990453415,groupA
1.3928054218062114,groupA
7.812580798363894,groupA
3.251052474761594,groupA
1.3930074444709917,groupA
2.974870092398869,groupA
5.86035107308078,groupB
7.292733197604013,groupA
4.38549946816712,groupB
9.303276879926415,groupB
8.500512023119796,groupB
9.745617846674755,groupB
9.422235281094231,groupA
0.12427161199391468,groupA
4.996792984051948,groupB
4.46833981434289,groupA
7.159264096435404,groupA
7.568597785642527,groupB
5.761185522415353,groupA
0.061452501994376796,groupA
1.1189356379319326,groupA
6.1247823036094395,groupA
4.212915344671217,groupB
3.5531134751047655,groupB
2.244143960523978,groupA
7.054491078887036,groupB
2.9322256018410564,groupB
4.740895678426089,groupA
3.9424939815123006,groupB
5.298044281560941,groupB
9.938419833745467,groupB
4.375703731074005,groupB
4.212498175509758,groupB
7.4855486449436635,groupB
8.162723822593351,groupB
0.10073456218864019,groupA
0.18617073082730307,groupA
1.4174876775087453,groupA
2.6140110718775587,groupA
7.123652262988701,groupB
7.887175028751191,groupB
7.89592419191142,groupB
0.7887975685706872,groupA
0.7008851826322582,groupA
7.177331415255853,groupA
7.505344202428816,groupA
2.21431704122085,groupB
0.4402455464386612,groupA
5.201886822471672,groupB
7.635991778725028,groupB
9.011912081657064,groupB
1.5666532726291704,groupA
5.569310967692498,groupB
8.331466306044222,groupB
6.623104570721022,groupB
1.1241583890358786,groupA
9.907089091038447,groupB
1.3892514549449508,groupA
9.667020670731153,groupB
1.6779427176514927,groupA
1.1823652848438337,groupB
2.3543713585901918,groupB
3.8285056328143643,groupA
6.598580293893409,groupA
7.5954291291099105,groupB
3.772909105116632,groupB
8.96326941277353,groupB
8.21729207964372,groupB
3.243750264138623,groupA
4.3078179462358035,groupA
8.720417135222817,groupB
7.888770328437818,groupB
8.882147569430721,groupB
8.40219463063432,groupB
7.11322375589045,groupB
8.734639040963982,groupA
7.707039953305479,groupB
6.286614379070418,groupA
6.02419518663606,groupB
2.1067661421831483,groupA
7.374652161798916,groupB
2.7926275910186362,groupB
9.737274605761483,groupB
5.740225206776747,groupB
8.598380430679999,groupB
4.023246683412127,groupA
2.5942143511320346,groupA
9.3892256355536,groupB
1.3018061683707671,groupA
4.156074035900863,groupB
4.83808264987882,groupB
5.2780702601656095,groupA
3.0424471535746287,groupB
6.072308993423477,groupB
4.917816147169923,groupB
9.869152323803998,groupB
8.347306660703254,groupB
2.0155864796700653,groupA
5.985628553501017,groupA
7.760961704642945,groupB
6.763455653518698,groupA
6.83260265801239,groupB
1.2446266087077473,groupA
1.58452203555435,groupB
7.342849917157912,groupB
1.6206505533246185,groupA
0.13663193883255875,groupA
5.7639188402337895,groupB
6.436654464749715,groupB
9.737171191064531,groupB
2.2581725088584403,groupB
0.23658685024154358,groupA
8.025615917361634,groupB
7.388613171410585,groupB
2.2328123447926087,groupA
9.576608526786769,groupB
3.283303704905687,groupB
4.529416034050286,groupB
9.646182069455412,groupB
6.407907444871722,groupB
1.0509262813654974,groupA
8.029695309693185,groupB
8.380664283796266,groupB
7.106203472663236,groupA
8.757223960302861,groupB
2.3188421438070774,groupA
8.302905380918068,groupB
5.234922568125203,groupA
4.874763001761961,groupB
4.632146428191448,groupB
5.011123796621369,groupA
0.20069138126648012,groupB
8.063575843531629,groupB
4.072861702844777,groupA
5.211246342980742,groupA
7.6021356305723895,groupA
3.982159297780764,groupB
9.790724891334078,groupB
2.950704380802547,groupA
4.628656053275942,groupA
0.5806119642363239,groupA
2.3514825842720666,groupB
6.3044520224204215,groupB
0.6847591046110946,groupB
4.236304974538919,groupA
9.85584218237746,groupA
2.8063865609177885,groupA
5.805070952841164,groupA
8.022717120852079,groupB
2.42959340188699,groupA
1.7965502033669456,groupA
9.113928428358642,groupB
5.8595354732876626,groupB
3.5623377679279122,groupA
1.4747466537521325,groupB
6.893659433402615,groupA
1.3881350769845269,groupA
7.476953625031216,groupB
0.597691977472794,groupA
6.173357095465732,groupB
2.7312015650855095,groupA
8.666001141936698,groupB
8.931512865137298,groupB
0.14488929667149208,groupA
6.377351512491721,groupB
3.178881048582242,groupB
5.4949971425469215,groupB
7.258576684462968,groupB
8.29874686094792,groupB
3.7725921041010855,groupA
9.740942377403114,groupB
6.244689481152053,groupB
4.048192587496057,groupA
0.08102342478536917,groupB
2.781461844794789,groupB
5.3396626166919745,groupA
3.4471450885649135,groupA
5.2882554842166085,groupB
4.945111861081529,groupB
0.052488692278495064,groupA
8.991262026010471,groupB
7.029493619520959,groupA
2.954936038883995,groupA
0.3656224057586033,groupA
0.15818034006734982,groupA
9.351861152035934,groupB
7.151424051193524,groupA
4.398192956797339,groupA
1.2644303587880812,groupA
6.35303318466725,groupB
2.986133366262677,groupB
1.4333794797682642,groupA
6.7148802002012,groupB
5.728950924676775,groupB
4.732327696021656,groupB
6.586235299979519,groupB
0.7176602786818742,groupB
0.8967618965581448,groupA
5.469088577764428,groupB
2.116556444022338,groupA
5.567739333066571,groupB
4.953601412508014,groupA
0.08445681902534252,groupA
4.920842876350198,groupA
3.1695341427391344,groupA
4.667465978788835,groupB
5.71943480409637,groupB
5.609027236836769,groupB
3.7782003343410144,groupB
1.4986639114685885,groupA
1.8650990570292891,groupA
4.920189088981744,groupB
7.164426516130518,groupB
2.688258865500991,groupA
4.575314988781754,groupA
7.28547024986382,groupB
8.1911863153909,groupB
4.436476984651709,groupA
2.0321002108799546,groupA
6.928106369125249,groupA
7.744341211208896,groupB
1.6858492944194325,groupA
2.2827108128012608,groupA
7.9159224814056595,groupB
3.162307564019664,groupB
2.9212892636566137,groupB
5.359022737953335,groupB
8.560555732113727,groupB
9.812013894926615,groupB
1.4465354414455611,groupB
7.411410344019371,groupA
1.0936004181001913,groupA
7.776692872819197,groupB
6.88127134305605,groupB
1.8805717150266743,groupB
6.840064542697157,groupB
8.241956545617349,groupB
7.077434413385692,groupB
4.2498004030107825,groupB
3.445018832209529,groupA
2.045225336226928,groupA
3.55213599231515,groupB
1.4440123093960966,groupA
5.974857242509557,groupA
4.913698968559958,groupB
4.997352212288575,groupB
2.5661152055288605,groupA
5.888701058317462,groupB
7.550286779993536,groupB
7.916026460719086,groupA
4.200497617362769,groupA
7.530420329627875,groupA
4.296561205473211,groupA
0.2570853727247857,groupA
5.000728128836127,groupB
8.5935468365777,groupB
7.436950297065352,groupA
9.728471167148932,groupA
1.465938389934719,groupA
0.21976099603380983,groupA
9.10786899614174,groupB
9.751836753322356,groupB
9.668531003865322,groupB
1.3601824888799863,groupA
3.506879799791429,groupB
1.6228493826536217,groupB
7.914238965862079,groupB
6.704631221663765,groupB
5.896600831617613,groupB
5.038819518594862,groupA
8.802389511479305,groupB
4.908387467320859,groupB
4.471030203304778,groupB
1.7759454700521282,groupA
8.536437203098682,groupB
4.653503542232869,groupB
7.172034346249964,groupB
9.81101458051379,groupB
8.4581253513875,groupB
7.000955832983634,groupB
9.153567540007613,groupB
0.7998180475397743,groupA
2.2074798103042035,groupA
8.843107857668816,groupB
1.9020412341206205,groupB
0.6034347011540375,groupA
9.428422775977932,groupB
0.46911948091032163,groupB
1.6132561461826256,groupA
5.894342160899749,groupB
8.048075930006242,groupB
0.3188447497814384,groupA
9.848249239192143,groupB
5.021142326799854,groupA
5.577514766457571,groupB
8.026917768183091,groupA
1.7598873766471446,groupB
5.85143115608297,groupA
1.052266841860059,groupA
7.545411720209216,groupB
7.285379244114024,groupA
9.678658195372053,groupB
2.8104515646224226,groupA
1.271677067675161,groupA
5.092157499563986,groupB
8.246082724456587,groupB
9.672062063711147,groupB
3.0824947241801426,groupB
2.1696334959435317,groupA
0.12828427996061653,groupA
9.830215302160573,groupB
8.465014188424995,groupB
8.66972093741939,groupB
5.0810308287347725,groupB
0.208684975002571,groupA
7.611391044410394,groupA
5.776095854003786,groupB
7.330262006734831,groupB
0.7128883942339659,groupA
7.573555156065074,groupB
7.355985210607833,groupA
5.270930998203608,groupB
0.955684157575436,groupB
1.1169450948652881,groupA
5.217679803633355,groupB
9.680571818755757,groupB
9.145545500940315,groupB
7.620821425859896,groupB
4.72953035848434,groupA
1.6586447140803162,groupB
3.072360455009905,groupB
8.695195272053315,groupB
7.088239005781686,groupA
6.262573462824164,groupB
4.923483893373044,groupA
2.6614996212680997,groupA
6.86087221758244,groupB
6.750328975461109,groupB
5.13667139723707,groupA
5.8106470349808905,groupA
6.740033726913377,groupA
5.826577572659736,groupA
4.992868666998861,groupB
8.636581332773183,groupB
4.387614435511767,groupA
5.037677855171671,groupB
4.234973276815159,groupB
4.8680993314215195,groupA
0.4108235734202337,groupB
7.026825228192129,groupA
3.951811512161015,groupB
4.002621026829751,groupA
8.994858028586647,groupB
0.6448052640446855,groupB
8.291660059040463,groupB
1.6924702186772478,groupA
8.55843611598192,groupB
8.658249280805526,groupA
2.48736699898928,groupB
0.3506274552976063,groupA
4.5190739566105185,groupA
7.093895387175446,groupA
2.1249741492544407,groupA
6.926082173685075,groupA
8.340737463692284,groupA
4.03577848638986,groupA
6.727874007383239,groupB
9.239869075056873,groupB
0.44246438317487535,groupA
1.2278920025365547,groupA
3.4359527198767346,groupA
3.456382322471346,groupA
1.1965131289409259,groupA
1.246833163815253,groupB
6.929527794820418,groupB
6.169140908927533,groupB
6.531170624554883,groupA
5.760133600677163,groupB
4.595685331775633,groupB
6.77809136787349,groupB
7.937838177649777,groupB
0.7830590307276941,groupA
0.2930195329111329,groupA
1.9928033401147427,groupA
1.7945122343922226,groupB
4.539988010658601,groupA
1.6917605909817146,groupA
0.6722851381785289,groupB
8.657103146730105,groupA
4.020229772470905,groupA
0.020534941655618866,groupB
6.161172069910517,groupB
8.803771165545301,groupA
1.4301744090403912,groupA
3.8279785660030328,groupA
5.750935577520597,groupA
8.081930917771414,groupA
0.16564216829472955,groupA
0.9753543086638594,groupA
4.924600812361987,groupB
5.707862726386587,groupA
7.68560554045163,groupB
3.14211402107469,groupA
3.268946084386827,groupB
8.778806617879656,groupB
5.6302186089085815,groupA
1.495751341848014,groupB
1.087867363088516,groupA
3.0195603613781574,groupA
3.9052232128547972,groupB
9.41471531517882,groupB
1.146738732690229,groupB
4.811313104554335,groupA
8.307923571111566,groupB
1.0418409647457672,groupA
0.036235902337665715,groupA
0.41977471478412465,groupA
0.9974383302413781,groupA
2.4876283376362607,groupB
3.3749609604660047,groupA
7.10144788780818,groupB
9.957986214144968,groupB
4.41847900588916,groupA
9.576837185758572,groupB
0.4387121435702712,groupA
0.15642825460914112,groupA
0.9941370949526918,groupA
7.888897049913397,groupB
8.822574375902835,groupB
2.7858175668797394,groupA
5.319268416393176,groupB
8.648770825241844,groupB
0.9215629206053289,groupA
4.5906894456828615,groupB
7.123315957666935,groupB
1.6036878476697802,groupA
4.670134975401465,groupB
1.4063999035781916,groupB
4.87618492180526,groupB
2.1526026835033463,groupA
6.672707776225063,groupB
5.676874229560188,groupA
4.299393865255494,groupB
4.592472341216801,groupB
1.8113386467227366,groupA
8.649313223173277,groupB
4.776280354709864,groupA
6.034693131911122,groupB
2.5962451670886844,groupB
3.3310935551255727,groupA
7.7526281369287675,groupB
8.368086585712959,groupB
2.7076052340116674,groupA
3.1274599816265782,groupA
9.321381294722897,groupB
8.334059280206466,groupB
6.011984678250596,groupB
4.696494131892236,groupA
6.99139700012943,groupB
5.894964031372071,groupB
0.833635588440913,groupA
8.141933517331978,groupB
6.558652157632583,groupB
8.159239722740764,groupB
4.624867037030132,groupA
6.7400745822826815,groupB
4.1559155753781045,groupA
3.311404697957431,groupA
9.584545914350619,groupB
5.333372095606842,groupA
5.299344019207556,groupB
5.509894752708908,groupA
8.862108413489306,groupA
7.033331133562756,groupB
3.1421857738261636,groupA
5.383391312888797,groupA
2.3675910115850094,groupA
2.5155287654657146,groupA
2.4700021885188628,groupB
0.49264284395616365,groupA
2.96619083538338,groupA
2.860474203010649,groupA
1.2304971337504322,groupB
8.439644119082958,groupB
8.01757436266713,groupB
3.339673826613928,groupB
3.8048637150439446,groupA
0.8028980386878093,groupA
8.343149685736117,groupB
1.8545929103069314,groupB
7.735992762458342,groupA
5.953629869537531,groupB
0.2551203073932118,groupB
6.838846548091309,groupA
0.39012423206036373,groupA
1.3542373281795073,groupA
5.21443548109575,groupB
7.606288478397895,groupB
2.91952103612799,groupB
3.041747735731559,groupA
2.924567989269109,groupB
7.48885442078919,groupB
4.010208197172378,groupB
9.634097983824258,groupB
4.606959686768589,groupA
1.12093177681849,groupA
5.055198813149354,groupB
6.937934225396772,groupB
4.203315251152948,groupB
1.1983122115377443,groupA
5.62313068569857,groupB
4.749364057153719,groupA
2.139756820627797,groupB
3.6198517417534184,groupA
4.1468080369685545,groupB
0.9834449368787901,groupA
2.867029709355833,groupB
9.602906899639777,groupB
3.606491082979275,groupB
7.197668887393711,groupB
7.927026900964533,groupB
7.987389543806756,groupB
7.318360968310102,groupB
9.836587244483683,groupB
8.025210930941618,groupA
4.189458680868333,groupB
1.6675916916241251,groupB
0.1600109202263178,groupA
3.216152528439822,groupA
5.15990361608371,groupB
3.3748624920480195,groupB
3.460689298462073,groupB
0.509177128576046,groupA
3.1132458648604358,groupB
0.5006299525101798,groupB
1.55753810353786,groupB
4.115603871753334,groupB
7.934446940952443,groupB
2.4375057106211564,groupB
6.989613425898014,groupA
9.29961855961405,groupB
7.09744450633303,groupB
2.400860051054041,groupB
9.250125277879789,groupB
5.941485184712809,groupB
8.043978056131438,groupA
0.903242525428668,groupB
2.798630206722578,groupB
0.02344318693400349,groupA
6.516432993035432,groupB
4.110083325879536,groupB
9.57663829429867,groupB
8.322794409551179,groupB
2.9026115265730823,groupB
2.261869053703889,groupA
0.024492229626731365,groupA
4.629716074610382,groupB
9.665094334245342,groupB
0.16976673333903403,groupA
1.9465364471962665,groupA
1.2543025546863174,groupA
6.1685499190352155,groupB
0.5244709850748475,groupB
5.3820540034823985,groupA
1.8720749688371752,groupB
2.3041445042472795,groupA
6.997553822253348,groupB
9.389736536935368,groupB
5.772282817386538,groupB
1.20398295944516,groupA
5.175278302750578,groupA
7.415810834653684,groupB
7.180077440551713,groupB
0.8469037790350453,groupA
6.779877790170711,groupA
6.856426912408931,groupA
9.852150224502784,groupB
8.63037877724777,groupB
4.654679943849872,groupB
4.303231912959365,groupB
7.894519063460006,groupB
6.015820290289977,groupB
0.08784326290604882,groupA
5.630780720936701,groupA
0.4883998606969908,groupA
8.484233949436412,groupB
9.41435514745192,groupB
2.99279234100436,groupA
5.671835166900405,groupB
0.4474417697840982,groupA
6.875496220842155,groupB
3.482289510829207,groupA
6.716060311806528,groupA
3.9724868933821855,groupB
5.556173642265502,groupA
4.81311264302123,groupB
2.1302805557464755,groupA
2.562429508054107,groupA
7.209050435489005,groupB
6.125700429138281,groupA
5.569206088928269,groupB
7.508444495796603,groupB
5.974734389951305,groupB
9.73063740175974,groupB
6.515657477193009,groupA
0.0425897402937403,groupA
5.7026005674071065,groupB
6.195305348494421,groupB
3.6459032848540787,groupB
0.5782072708274011,groupA
7.769097041782404,groupA
8.161797889057032,groupA
5.306942020569073,groupA
9.46979448444986,groupB
7.200295270355211,groupB
1.26159849152638,groupB
1.0602852237598637,groupA
7.044224078975812,groupB
2.4724811739139474,groupA
5.6616173083261145,groupA
3.2622332265124196,groupA
4.082056621948832,groupB
5.746903860197098,groupB
2.4280834956211605,groupA
2.1112930903892337,groupB
4.736741605529062,groupA
9.369399280875445,groupB
1.9142369197338538,groupA
3.4230338471979027,groupA
9.18990468369729,groupB
4.328160518606625,groupB
9.743273013841195,groupB
7.98393202138417,groupB
2.6155630656030047,groupA
1.8278970686324947,groupB
1.241854354326446,groupA
0.04994548216657346,groupA
4.571605506654558,groupB
9.239222978908192,groupB
0.047698929842494575,groupA
1.2227313574407594,groupA
0.40366293518985574,groupA
2.1702791281564906,groupA
7.327078845345794,groupB
3.35543697668528,groupB
5.128664147971786,groupB
0.25403594930740514,groupA
6.948004504939025,groupB
9.578423076832575,groupB
4.400849259092597,groupA
2.1388994388791605,groupA
0.009730407126594676,groupA
8.229429322931882,groupB
5.233427884373495,groupB
6.020344806431533,groupB
1.3699650834485255,groupA
8.127676183430372,groupB
7.179805418988589,groupB
3.4842971799143294,groupA
6.872618524505951,groupB
0.9210127320808181,groupB
8.53850527982117,groupB
3.2945532498030627,groupA
4.589547532497354,groupA
3.302059373617997,groupA
0.04848526757640137,groupB
6.611166317071142,groupB
6.871856308612333,groupB
7.844693058195182,groupB
3.54310750652006,groupA
8.757577676017394,groupA
3.775878580195532,groupB
0.6362287948353107,groupA
5.531970605148335,groupB
4.563346739241807,groupA
7.49577716857986,groupA
9.322141196611401,groupB
5.924308428534683,groupB
3.217299403303616,groupB
2.9022659268648376,groupA
9.656665544914427,groupB
2.6835482095640573,groupA
4.912228898779367,groupB
0.8525447478640125,groupA
8.15049715575371,groupB
1.541605979944245,groupA
0.005172924325027584,groupA
9.391176168687657,groupB
4.381118596904145,groupA
0.7788971643070786,groupA
3.333667900592401,groupA
7.690049799815039,groupA
8.405860510061045,groupB
9.111066183850552,groupB
2.3139962061301267,groupB
9.056342841507318,groupB
6.385234277013945,groupB
6.878924970337752,groupA
9.816703505618317,groupB
1.6427190038273742,groupA
3.8456741774261873,groupB
8.820713111337124,groupB
8.10080914876733,groupB
8.789937936123529,groupA
9.31668012818754,groupB
9.865923520526957,groupB
1.5430920830704808,groupB
8.978360846082534,groupB
7.666290103106967,groupB
2.6217266982817655,groupA
5.993332581195586,groupA
8.01501266197313,groupB
9.098405962182358,groupB
7.864363858932103,groupB
5.509847446226972,groupB
1.7842002751331787,groupB
6.2020787213223105,groupA
3.580394032284234,groupA
1.390319883883303,groupA
6.18317628787112,groupB
2.861504148016174,groupB
7.451785664029776,groupB
8.937707273244612,groupB
4.884766063155378,groupA
8.420028675224959,groupA
5.513655313975832,groupB
8.635638318695046,groupB
4.544742421044303,groupB
1.884466294706889,groupA
1.7468777413501202,groupB
6.416628309698593,groupA
8.825306963739635,groupB
0.7688546187314593,groupA
0.15647441116578564,groupB
2.772859455815669,groupA
6.05334842744772,groupA
9.489456149170085,groupB
0.33098754961614407,groupA
9.585128613084903,groupB
2.9829351383999336,groupA
3.084213884728084,groupB
7.322152764195826,groupB
2.9515849320004595,groupA
7.58930755132858,groupB
3.9575534818789837,groupA
7.015938680302286,groupB
7.9234932828378035,groupA
4.283704680742572,groupA
5.831708757006922,groupB
3.9171006250071794,groupB
9.058687804132472,groupB
3.6957281715838475,groupA
9.073743108261352,groupA
1.715176455583678,groupA
7.961562731168588,groupB
8.107353241310802,groupB
1.9869297136743913,groupA
0.259465872577227,groupA
3.5871045694151125,groupB
0.7186953699058829,groupB
0.8987602223972591,groupA
0.10689789052095389,groupA
2.8600270570272004,groupA
8.752445928962782,groupA
8.306873784517473,groupA
6.9264113546014014,groupB
2.131766720389999,groupB
4.627575952535064,groupA
8.788722734649864,groupA
9.396969424280957,groupB
4.919854550574229,groupA
7.313182058747177,groupB
0.6396492957715783,groupA
2.317728796730454,groupB
8.216709615045088,groupA
4.863776581429998,groupB
1.5448189201840057,groupA
0.29607305159385366,groupA
0.10768215936711067,groupB
4.985134877894225,groupB
6.249454656978043,groupB
0.27385725248936676,groupB
1.4093534335764835,groupA
0.3260454500237109,groupB
5.8741369989895444,groupB
4.3196599553630035,groupA
6.155701320824183,groupB
9.670714035447178,groupB
2.9014037148684135,groupA
8.424273496058417,groupB
1.8674045899948677,groupB
2.047679460897837,groupA
4.079058042815098,groupA
1.7009370108863608,groupB
4.202775563782972,groupA
3.2961558130934856,groupB
9.655839120562943,groupB
1.4676101390087715,groupA
9.590776019712687,groupB
0.2557599680274836,groupA
1.066461594521596,groupA
8.576246975065628,groupB
8.289226407091842,groupA
6.480358793056091,groupA
7.964359868295099,groupB
9.29774396858611,groupB
2.715377233975478,groupA
1.3248061829231295,groupA
7.379315037818655,groupB
2.658846118700172,groupA
7.300933405107191,groupA
6.111902836262528,groupB
3.7398656755030624,groupB
7.790494427189804,groupB
6.187585431939713,groupB
2.647003480801988,groupA
5.002056017938545,groupB
4.3612235227089124,groupA
0.17909169807463599,groupA
9.994100291122463,groupB
1.5904973811017353,groupA
0.15345569338637066,groupA
0.09765240641102846,groupA
0.6384284174185406,groupA
6.177495429675869,groupA
5.257747071115442,groupB
7.370173255987389,groupA
1.008947535460022,groupA
1.3624326173433932,groupA
9.016882008190871,groupB
5.827262146365067,groupA
8.98545506751163,groupA
2.396803613255676,groupA
7.898560397718798,groupB
9.586347498742779,groupB
1.2293597544902324,groupA
4.529072657346063,groupA
3.906434152846608,groupA
7.980902914195244,groupB
0.8077990508198529,groupA
1.0854664165057715,groupA
0.29229819298406734,groupA
8.979812718667864,groupB
4.075083319280354,groupA
3.794237005696525,groupA
5.388984713662989,groupB
0.8226739336308109,groupA
9.674412330408245,groupB
1.3069282771704005,groupB
4.86932466706865,groupA
7.805196906719637,groupB
9.96120509120926,groupB
3.544555211602274,groupB
6.020572753773501,groupA
9.62959844649223,groupB
0.35571901540133566,groupA
7.041967958250609,groupA
5.418843514980491,groupA
5.552389544665225,groupA
7.929182314871735,groupB
1.491331255487779,groupA
9.25098625728826,groupB
9.9994658062129,groupB
0.8304352726466302,groupA
7.275675306701003,groupB
6.362368201923976,groupA
7.37786795056823,groupB
2.478841005828525,groupA
2.9847256334407426,groupA
0.6523452881791958,groupA
1.7156844140530891,groupA
2.3874942231708163,groupB
6.235235114267441,groupB
6.782677141799665,groupA
4.445783300983731,groupA
1.2358037471499317,groupA
9.063184784917325,groupB
1.2394454622010997,groupA
8.27357291446848,groupB
4.673351834833839,groupB
4.6705433111027,groupA
6.87152711196764,groupB
0.5107808450467632,groupB
5.192319712630507,groupA
7.31862278674209,groupB
0.2375125821937396,groupA
8.61197597126196,groupB
7.232223300527103,groupB
4.056013057520721,groupA
6.891033359682096,groupB
8.732723274350654,groupB
9.05049185974743,groupB
1.1129380426059143,groupA
4.428414241159542,groupB
3.971042582340841,groupB
8.471560664220744,groupB
0.015756829520873206,groupA
8.362764638485537,groupB
8.309195520474884,groupB
4.675407869281364,groupA
7.574026839880595,groupB
3.1692582504298583,groupA
0.11145477155217187,groupA
7.057349853569571,groupA
9.135656958659535,groupB
4.005245568291073,groupB
2.0448724085997783,groupA
5.831696856130696,groupA
8.129535230562482,groupA
2.327703551785624,groupB
3.38235409507045,groupA
9.503569558917881,groupA
4.624665011757446,groupA
6.934700237335203,groupB
3.447527600837401,groupA
7.230550455019236,groupB
7.104164313030065,groupB
6.716195811948039,groupB
8.314658130248588,groupB
1.1674213758528773,groupA
1.0240019669703448,groupA
0.8255035991633297,groupA
5.3486742763633375,groupA
5.455263552442062,groupB
4.1114266962247425,groupB
9.132736546911229,groupB
4.543422504327539,groupB
5.996706725666011,groupB
6.336753544918684,groupB
1.095958977499305,groupA
1.3925225326213186,groupA
3.5618638610940523,groupA
4.613327773597443,groupA
4.828676944247392,groupB
1.9273450907388456,groupA
3.1979875599011387,groupB
1.5616901915767345,groupA
2.741652878287244,groupA
7.020149080404395,groupB
5.067416228609959,groupB
0.10152410646139143,groupA
3.124425793132879,groupA
4.73547469058566,groupA
6.503941728921506,groupB
2.663960324221013,groupB
3.182779441492257,groupA
7.796471643170406,groupB
6.642101078249539,groupB
4.871090182055391,groupB
2.9818467822147623,groupA
8.710628546488902,groupA
3.9155785596526096,groupA
8.501645050777567,groupA
8.423472669127884,groupB
0.08582829345319509,groupA
2.112186231929114,groupA
0.313099004257974,groupA
6.617513256071214,groupB
8.695984618703932,groupB
2.679755728478578,groupB
0.1509788469734541,groupA
7.940318947187711,groupB
2.177661693198262,groupA
3.3595228135827124,groupA
0.044808232812656446,groupA
4.7038780501143185,groupB
9.325761416578445,groupB
5.834699913956918,groupB
2.4343772851918777,groupA
8.023866646357554,groupB
2.997014453420105,groupA
6.369212831311217,groupB
0.026310915713112504,groupA
8.355808658839948,groupB
7.032856399066423,groupB
2.915995722720086,groupA
7.254238561414585,groupB
4.791090924573922,groupB
0.5052416277383165,groupB
3.0306142178219444,groupA
7.080098492189561,groupB
6.937823600556592,groupA
8.315763121545197,groupB
8.362782219604291,groupB
0.5718108419335155,groupA
6.768406985418881,groupB
2.8045529661338775,groupA
1.3378590335303064,groupA
6.93505344739877,groupA
6.752765582772304,groupB
6.834041717717349,groupB
6.798651873178293,groupB
0.5442503962535594,groupA
2.8139749806382284,groupA
1.8056969725846295,groupA
8.364583365038804,groupB
9.05897389810907,groupB
3.885524736464622,groupA
0.46607398468460737,groupA
4.684020401363687,groupB
3.444319258477381,groupA
4.204669465010022,groupA
2.1013053382042757,groupB
1.8035766594594438,groupB
0.12380416918218784,groupA
4.875831587461954,groupA
8.964778385195403,groupB
2.8464956822353624,groupA
6.536003200820215,groupB
9.957236199521226,groupB
6.408117294135471,groupB
6.965578856154822,groupB
0.9653297134830308,groupA
1.4820127293078234,groupB
3.2864262642855566,groupA
4.093044467305353,groupA
3.0656547184699887,groupA
1.88479488166037,groupA
3.5995080844545866,groupA
6.922462764151983,groupB
3.3541678401503083,groupA
0.5730103035561518,groupA
9.04463992026717,groupB
4.49251638601143,groupB
3.9520990981563964,groupA
0.5089883251831706,groupA
5.945445605071611,groupB
3.958566190031277,groupA
2.7874659763633627,groupA
7.148841133138654,groupA
8.856118324361494,groupB
5.989355479297666,groupB
3.620462270791326,groupB
4.754716583166346,groupB
8.710209191214656,groupB
0.659938495014355,groupA
1.8407994432865349,groupA
7.64007348899165,groupB
1.5965810556177418,groupB
1.7690908755784285,groupB
3.7233171317379887,groupA
7.3485428126470485,groupB
7.728897294449676,groupB
8.824797516788268,groupB
5.3873323350881535,groupB
1.9747854881388083,groupA
0.7748786377008787,groupA
4.243465274192484,groupB
8.229063097754315,groupB
4.023488451480123,groupA
8.991965858379329,groupA
3.919494483580408,groupA
4.196393382791005,groupB
6.426858245396242,groupB
9.360168560157922,groupA
8.65782815933201,groupB
6.5312892593520875,groupA
8.00207995968277,groupB
8.612733217811574,groupB
2.0328135975773565,groupA
7.066184770184044,groupA
4.972350173878421,groupA
4.461509630569188,groupB
3.14567955154752,groupA
7.8441964180223875,groupB
1.7861561965589645,groupB
1.8359924957965001,groupA
5.197434982721324,groupA
3.7254301525716125,groupB
4.781091036131011,groupA
2.261183382593158,groupA
8.565024648235207,groupB
0.19798008647558318,groupA
6.026074791771166,groupB
5.966580411848996,groupB
9.550917130308207,groupB
1.2563413578535354,groupA
1.5585169943382104,groupA
1.5424964982644818,groupA
8.648458020522641,groupB
0.8344078589392012,groupB
0.17360353505318282,groupA
4.254946943720613,groupB
9.099562535121184,groupB
5.746361986919557,groupB
2.7281718400509924,groupB
3.0297832873962074,groupA
2.8836647947610827,groupB
1.7266531260808404,groupA
1.7419245665425087,groupA
5.872480673381464,groupB
5.827050826629647,groupB
8.268723373058966,groupB
0.9081748823690483,groupA
1.5727686911787753,groupB
1.1132923393856242,groupA
4.3087679978923346,groupB
0.30281380566040905,groupA
1.1425412851925698,groupA
4.55573635342766,groupB
0.12193126058827386,groupA
6.785358964872241,groupB
8.959412211346095,groupB
0.1029097002414836,groupB
1.2990174359063755,groupA
8.845205578639238,groupA
1.1638600946578848,groupA
8.322022901438466,groupB
6.525870451653704,groupB
9.32866791334208,groupB
6.830804788502652,groupB
8.273038445990737,groupB
0.7376150913869006,groupA
8.800985375052537,groupB
6.871166039645767,groupB
7.068246719448546,groupB
0.6773050119346458,groupA
2.3087894188449267,groupB
1.798643351106961,groupA
5.426006805838844,groupB
8.033235557473065,groupB
5.9130042685524495,groupA
4.423604488605866,groupB
9.182011646582843,groupB
1.21011648210134,groupA
9.303899451041943,groupB
8.430261530185453,groupB
9.620638871765065,groupB
5.924002785724464,groupB
2.1769360962908024,groupA
1.5947137330702255,groupA
1.829937167193314,groupA
5.68571391741754,groupB
4.771774843079801,groupB
0.26814541375906664,groupA
3.35756141920303,groupA
9.807484000180565,groupB
4.332755159259248,groupA
3.5584292511845925,groupB
2.136293463667258,groupA
0.7566150207392319,groupA
6.356428199945916,groupA
4.490322865189029,groupA
5.935175884396891,groupB
6.8805449653180535,groupB
1.8132350991295454,groupA
6.123791304586735,groupB
7.048018768787148,groupB
6.101285722129286,groupA
3.3728084247683308,groupB
2.1949583702032527,groupA
8.221104607640466,groupB
1.953753825781216,groupA
6.676026526391144,groupA
0.06672956304099587,groupA
5.206124313992247,groupA
4.120899634528483,groupA
8.37599629662153,groupB
3.606949712141633,groupB
0.15619112626684362,groupA
0.6663432264044489,groupA
4.852500228862179,groupB
1.7405062271759075,groupA
9.309507766516004,groupB
0.7187551216616306,groupA
2.8717230171612207,groupB
5.756265237624712,groupB
0.06789739029365527,groupA
2.1265768396190463,groupA
2.0406886354406186,groupA
2.6171002971888657,groupB
2.310719184053246,groupA
4.250668933822171,groupB
4.562923947786761,groupB
9.367221447552534,groupB
8.317207005880684,groupB
7.738684438318732,groupB
8.75129829552281,groupB
3.8200167709895574,groupA
5.324227219245673,groupA
9.939743899777906,groupB
2.052433278842438,groupA
1.8248500307334747,groupA
5.937907324780274,groupB
1.1513675516343724,groupA
7.384904334148948,groupB
1.054712950520963,groupB
9.356261536288669,groupB
5.691482071622965,groupA
3.634812461398864,groupB
4.148955852664202,groupA
1.7493934814656908,groupB
5.874197381865186,groupB
9.775083991405447,groupB
0.6260310634718569,groupA
6.881310835513322,groupB
2.325296222919353,groupA
9.710704963889889,groupB
1.908426098287478,groupB
8.933896303202873,groupB
2.157064252853208,groupA
6.376377653146252,groupB
8.452735017066082,groupB
2.8938835437053667,groupA
6.756053056251617,groupA
3.4449865275315092,groupA
2.9477938402368875,groupB
4.2663106511121,groupA
3.214153468257929,groupA
8.207618289498717,groupB
1.1474457472467292,groupA
8.355143030517779,groupB
0.614352390698728,groupB
1.5653846970004859,groupA
8.675025208133032,groupB
0.06955498242609992,groupA
2.797763170158114,groupB
9.780298787376566,groupB
1.3259823245507474,groupA
1.9325528778677026,groupA
9.18683166555422,groupB
6.661121097179134,groupB
0.4739388960920954,groupA
0.5406701180693363,groupA
1.488601049705982,groupB
5.548299275071611,groupA
8.343307325377006,groupB
8.596677626137978,groupB
6.387858385878701,groupB
3.9915291183398516,groupA
8.556633459913703,groupB
0.3526225890266599,groupB
7.868024649217141,groupA
3.9094235700704774,groupB
0.6239892306368577,groupA
5.992805284256448,groupA
0.7415569998897498,groupA
9.652483343219135,groupB
7.260737035169137,groupB
4.384048153281688,groupB
2.9740213798542525,groupB
1.4708491287346215,groupA
6.663288559573724,groupA
1.5460681136187338,groupA
5.058186699878554,groupA
2.9738720221065726,groupB
8.423261631967625,groupB
3.063931919655498,groupA
2.116548979151963,groupA
6.159723353106562,groupA
8.620685635773059,groupB
4.987258341954749,groupB
8.631472877636096,groupB
4.234233040014093,groupB
3.0272837051483634,groupA
8.140494145313799,groupB
7.239190594254471,groupB
0.8167873074853127,groupA
5.21086323447851,groupA
2.40254929035004,groupA
5.363566894893806,groupB
9.179064722786801,groupB
0.8196373081629338,groupA
8.693310752131026,groupB
5.562898797165147,groupB
9.155044076076381,groupB
9.317868316734355,groupB
9.013845567161532,groupB
4.241892228043169,groupB
4.417212963471688,groupA
8.037248578295905,groupB
6.904963410942914,groupA
6.233938674804024,groupB
3.3971337165685487,groupA
0.41637068502196395,groupA
8.687507884244862,groupB
0.047206370561226896,groupA
2.545128347594897,groupA
4.756706763720379,groupA
7.493284628903451,groupB
6.121964569120506,groupB
7.524211853504602,groupB
2.479652930084515,groupB
8.647706630018616,groupB
2.0647963324100447,groupA
2.811673169585185,groupB
5.696102205891897,groupB
3.7775210603179286,groupB
8.775491034925428,groupB
1.8757764635145546,groupA
4.587152729428716,groupB
8.03667862438035,groupB
6.900790185004929,groupB
2.286557237883635,groupB
1.5501347753366757,groupA
7.111513047772929,groupB
6.8408546291506855,groupB
3.834021701870637,groupB
3.915096052280953,groupB
8.817674706897094,groupB
8.273158974141147,groupB
3.8333608277779394,groupB
2.12893361325188,groupA
4.864246362491176,groupA
7.987079889628241,groupA
5.507941803203142,groupB
9.201955671470783,groupB
7.057404339982885,groupA
1.8520506054914043,groupA
0.7135065700842258,groupB
7.697987875966054,groupA
5.2628997746706485,groupA
7.552900835362091,groupA
2.7015484495168876,groupB
7.126172190046321,groupB
1.8532933848679367,groupA
6.866681572175861,groupB
3.360417753441247,groupB
0.9810470565342932,groupB
5.235781995543033,groupA
7.743514399987484,groupB
0.0072040690669361584,groupA
4.316782026196656,groupA
8.086895875869667,groupB
8.276089501582144,groupB
1.7635071787557566,groupA
9.28978959210258,groupB
9.902311474053944,groupB
3.25346497549577,groupA
4.609215482514514,groupB
3.9382962453135817,groupA
7.7883046620430445,groupB
3.8186252605272433,groupA
6.98951873159934,groupA
4.18352426262893,groupB
9.55445948975045,groupB
6.678397128709358,groupB
6.314473124776125,groupB
7.949378746779066,groupB
3.187432418084005,groupA
9.210144181505893,groupB
7.644140021752087,groupB
4.939136238658782,groupA
1.8588467873348546,groupA
4.002234520922807,groupA
3.4460601460544193,groupA
4.230575995839764,groupA
2.5065439622845807,groupA
2.153432172406112,groupA
1.5396941917011175,groupA
1.9259392557321775,groupA
3.580942789327841,groupA
0.8076712514641671,groupA
3.542397802069833,groupA
1.8095517476094947,groupA
7.214435857168652,groupB
1.6514828393772207,groupA
9.485111258429008,groupB
6.732059201579924,groupB
7.392588788294522,groupB
3.65669651361729,groupA
4.298633913125924,groupB
7.382985299312602,groupA
6.816180206195935,groupA
3.384817048788813,groupB
6.952266376664747,groupB
7.578414401583897,groupB
5.271326233080488,groupB
8.324190605511422,groupB
3.8686206984082494,groupB
2.2424934267765364,groupA
4.293359559296913,groupB
4.61811715924544,groupA
0.3981644787190397,groupA
1.183322059772045,groupB
0.634781530292533,groupB
7.241473341608047,groupA
0.5149717442083035,groupA
0.5576416134697593,groupB
2.0382376764559975,groupA
3.244022994526845,groupB
8.235345173877898,groupB
5.805205741547262,groupA
6.675622546505351,groupB
2.617995604686695,groupA
9.651323172639653,groupA
7.7523088852368796,groupB
4.541328525467137,groupB
5.152020404268881,groupB
1.8432654660612324,groupB
4.692838849012146,groupB
8.372365625880375,groupB
9.25821239130186,groupA
1.5650721024989311,groupA
1.431379359618723,groupA
0.1953370488578543,groupB
2.1279233214205218,groupA
9.601314762936514,groupB
4.612002745733489,groupB
0.34858183954522226,groupA
2.0769868787577916,groupA
5.540498669071291,groupB
6.972931494623723,groupB
0.3694663170913526,groupA
8.944536972376676,groupB
6.699502215995246,groupB
0.49440353305217233,groupA
2.1378132010990547,groupB
7.740714449766451,groupA
5.721323016978651,groupB
5.496803541640941,groupA
9.386595083828418,groupB
3.1966609916748743,groupB
5.445752404947503,groupB
4.569131972963143,groupA
6.483776233955673,groupA
7.7226801877604645,groupB
0.8583901534001948,groupA
3.4536126914375167,groupA
4.201851018095843,groupB
4.763672864300126,groupA
4.939130750529679,groupA
6.5889149729284116,groupA
5.065197239575876,groupB
1.3599877044653197,groupA
4.082310069902698,groupA
0.5490128381882797,groupA
7.434617891098467,groupB
3.5505115499676734,groupB
5.31621388093952,groupA
0.9528516294110656,groupB
9.481887761729412,groupB
2.23573260667607,groupB
0.022530610456766853,groupA
6.1261743398838675,groupB
1.9470306199754384,groupB
4.362952970829993,groupB
0.3032102696577621,groupA
6.65428738518215,groupB
3.473433647043657,groupB
9.383916758386903,groupB
4.96344922610419,groupA
3.475178591812144,groupA
9.390527038782231,groupB
6.415656661705226,groupB
2.519325637608522,groupA
7.046924949104678,groupB
5.16413974647298,groupA
6.425926734811037,groupB
1.284823951839137,groupB
6.821212638922832,groupB
9.058043452680595,groupA
2.051532315501834,groupA
8.877261681903327,groupB
8.424232740671595,groupB
5.637634553170255,groupB
6.796234923670456,groupB
0.1778737496817706,groupA
6.964168838227543,groupB
6.98295483514629,groupA
4.768557051422269,groupA
8.51462060663384,groupB
9.346657376465993,groupB
2.3418064034539543,groupA
1.7013000195141603,groupB
6.560102377664699,groupA
8.70043737094027,groupB
8.516874122284824,groupB
0.6052525984895141,groupA
2.965388808439171,groupA
6.528102337966052,groupB
2.709508722630104,groupA
9.379482580654376,groupB
7.2310228193242025,groupB
6.253402383842133,groupB
0.596947085751437,groupA
9.328610245268061,groupB
7.743552614890885,groupB
7.907590167932802,groupA
4.952737666463955,groupA
9.591107662225086,groupB
7.6175992541503685,groupA
1.9723389693783466,groupA
2.579286629503854,groupA
2.6983246959039295,groupA
6.161297718271061,groupB
9.283975716635933,groupB
9.247747219776587,groupB
6.06664560239645,groupB
3.9523589271751316,groupA
8.530123490362795,groupB
6.868711516892457,groupB
6.34878392319178,groupB
0.042131194673575845,groupA
7.58103218909976,groupB
3.4758407572439474,groupA
1.8773046318680742,groupB
6.40877556290471,groupA
5.758366234160405,groupB
2.61597101597273,groupA
9.535331962049957,groupB
8.014654457604987,groupB
1.4371845169586084,groupA
3.3193329555617623,groupB
8.36615506696979,groupB
4.587659660834047,groupB
0.10428060998790345,groupB
7.4821460702001,groupA
3.1339082731125334,groupB
0.2856108916887645,groupA
8.378620959792887,groupB
6.834451556809399,groupA
7.389238904368936,groupB
9.804934438789324,groupB
7.476805458613746,groupA
3.885940965521315,groupA
0.8632361064257132,groupA
9.19121596033863,groupB
7.33645788673174,groupB
8.63270875928941,groupB
9.164941587031723,groupB
8.87531728639016,groupB
8.970202039677808,groupA
7.253089655172772,groupB
1.7163191212625883,groupB
7.413674421244149,groupB
5.708100013430446,groupA
8.499535431776689,groupB
4.016235418338908,groupA
1.5180650559823217,groupA
3.611547000475176,groupB
4.578119377906644,groupA
3.043076991244308,groupA
0.525174179277258,groupB
1.5398768181966938,groupA
3.663745509574323,groupA
5.714226000510014,groupA
8.130085101068516,groupB
2.8742503733897395,groupB
2.087228446915158,groupB
3.618534560436891,groupB
7.484544887979019,groupB
3.7224989292179256,groupA
3.0036542258127783,groupB
6.992767857592379,groupB
6.478350751630267,groupB
8.232925962863572,groupB
0.9570507578529008,groupA
4.361050728965364,groupB
1.8621480014975889,groupB
6.3428278155597955,groupB
5.235444147529967,groupB
4.102739677397879,groupA
4.857705985041808,groupB
5.5056475031826055,groupB
9.89759711210159,groupB
1.132658414959361,groupA
7.906468878250945,groupB
7.5249043701287945,groupB
1.5766391438153604,groupA
7.0108976760364214,groupB
5.441778548902107,groupA
8.137827413646844,groupB
2.948675723223949,groupA
9.258657798145496,groupB
9.091263061965636,groupB
8.220138284224994,groupB
6.512310498854214,groupB
5.022056559031229,groupB
4.923864877702011,groupA
5.927655400839143,groupB
0.06761259529558084,groupA
3.0461918484887542,groupA
2.495002287766482,groupA
2.4710091557710276,groupB
8.113902886184217,groupB
4.214672036675218,groupA
0.10129189787142501,groupA
5.976240499407575,groupB
7.002108039801094,groupA
5.661601906310563,groupA
0.26475677554690047,groupA
7.6745863519057,groupB
1.870341272689422,groupA
3.1287292162640923,groupA
3.8008977022189327,groupB
8.866301227161223,groupB
9.545577985998184,groupB
5.243945633910706,groupB
9.504541662144463,groupB
1.311627926608453,groupA
9.188332474424557,groupB
6.631168648435003,groupB
1.4749171650238035,groupB
5.231451211882447,groupB
5.563349859020049,groupA
2.0871361610362635,groupA
4.203543262591095,groupB
9.483968779328084,groupB
3.603557258200165,groupA
4.807911862479527,groupB
0.9156974951042474,groupA
5.973833714219333,groupB
6.156592533934646,groupB
9.115737595188403,groupB
7.282534924656727,groupA
2.4173656090730855,groupA
4.316697839076596,groupB
4.092870902408152,groupA
6.844308148507236,groupA
3.4210582375855605,groupA
4.996881170297224,groupB
3.709534670236667,groupB
7.487179437037471,groupB
2.83891631793228,groupB
7.928022757297124,groupB
1.6431619372997308,groupA
8.622254809462312,groupB
0.6840976540784838,groupA
2.217807195597196,groupB
3.1995637916107675,groupB
4.694810171015532,groupA
4.827625971438776,groupB
5.191515003508931,groupB
1.2060658360762289,groupA
3.0171411615791155,groupA
2.386005001252016,groupB
6.291065477292824,groupA
9.063384419213719,groupB
8.226667006728741,groupA
3.3636439720799363,groupA
0.2442863058749578,groupA
9.39710580463586,groupB
4.822268603792183,groupB
1.7770170900660498,groupA
4.042962301094058,groupB
5.989931307071901,groupB
5.970461248329862,groupB
8.366150428800074,groupA
5.089300946226744,groupB
5.419948997662834,groupB
6.18680131058327,groupB
7.0348085340157605,groupA
5.38330420796798,groupA
1.5643814314259985,groupA
7.518529196188071,groupA
1.5118235115177792,groupA
2.119182839579752,groupB
4.807654294982586,groupA
0.7572661006323878,groupB
3.269369350238046,groupA
5.422144712665777,groupB
0.3410387561290362,groupB
2.1147254453386477,groupB
9.565270885253739,groupB
2.1661569635756175,groupA
8.751125982461266,groupB
1.1627960116834368,groupA
6.41017760640581,groupA
2.4408806011847304,groupB
2.5273182374201264,groupB
1.9786002943084224,groupA
4.32976427599531,groupB
4.947934219119046,groupA
5.004460266614657,groupB
7.995669242523263,groupB
0.7490435738473566,groupA
5.662702926564096,groupB
2.3944943811295283,groupA
3.5382922345604984,groupB
6.641066101074537,groupA
2.8516191801139303,groupA
4.218194340758829,groupB
5.245333019925388,groupB
3.4452067920451332,groupB
1.9334299755485884,groupB
4.860951650772098,groupB
3.2539621433429033,groupB
0.07909267252435126,groupA
7.757483428252611,groupB
6.850301158875642,groupB
1.1382448139680357,groupA
6.769966093987855,groupA
5.277255328986092,groupA
0.4612556914857735,groupA
1.0514799580898881,groupA
9.26161021586018,groupB
4.051712954028806,groupB
0.541099578010471,groupA
4.517502069592135,groupB
2.2763313770499227,groupB
7.832971684318693,groupB
9.119439440103873,groupB
2.911471110569277,groupA
7.711115140579863,groupB
9.112003904331152,groupB
6.012075955501314,groupA
5.265375484338435,groupB
0.424882974456664,groupA
4.904732516450423,groupB
1.787482531045308,groupA
4.871718578115552,groupB
1.3504980725596227,groupA
5.372149005304717,groupA
1.1599457431339633,groupA
2.8284955367792852,groupA
4.480233878832842,groupB
0.777444951997518,groupA
6.090030202156729,groupB
3.601305263174729,groupA
5.685053570119437,groupB
5.581516557806305,groupB
8.066104523056872,groupB
9.649590256016374,groupB
8.713186608862655,groupB
5.550388220756122,groupB
7.6339875991408155,groupB
3.792775011361992,groupB
7.667837239958285,groupB
5.072597939513903,groupB
6.1279546981083275,groupB
6.241306701614323,groupA
8.101887312825408,groupB
6.533679798605797,groupB
2.596695248504095,groupB
9.893978044448849,groupB
7.122340555424087,groupB
1.7345566111313393,groupB
6.442415687692382,groupB
1.7567909021651906,groupA
9.820973476273785,groupB
0.7307174392308124,groupA
9.598971915424737,groupB
9.16416073315176,groupB
7.410892645133117,groupA
5.962983155606098,groupB
7.933255533323184,groupB
8.21834437380817,groupB
5.840924704224393,groupA
7.595747258911389,groupB
9.699392249809254,groupA
4.6892473522670794,groupA
0.7891611599577641,groupA
9.115825421179137,groupB
4.512712238813068,groupB
8.059611760834887,groupB
0.9305210790184404,groupB
3.6092204082281096,groupA
2.613737226194438,groupA
0.8291542214817349,groupB
0.5765728938872183,groupA
9.952725457805446,groupB
4.8041963592156005,groupB
3.3183977650970142,groupA
1.263520802841268,groupB
2.2546198791003293,groupB
4.968645054368045,groupB
9.595363710249364,groupB
9.899429394812078,groupB
4.169764572719492,groupB
1.626700489467534,groupA
0.6863514814516647,groupB
5.676371678474049,groupA
4.708947369796597,groupA
2.5410556152494532,groupA
4.669882769688417,groupA
5.327944712217566,groupA
2.4638813716488506,groupB
7.552863440414981,groupB
9.678394172058873,groupB
4.40697303946798,groupA
7.975086325629793,groupB
3.015128456266484,groupB
0.17709261655814879,groupA
3.230387352532359,groupA
7.570991355890016,groupB
5.40147086841702,groupB
1.4289137178671452,groupA
8.865208395766537,groupB
8.287763589043987,groupB
8.805890477655149,groupB
3.9078954185315973,groupB
7.106961830110721,groupA
0.4191090058142932,groupB
8.511495805113253,groupB
3.053381341206106,groupA
0.6441719286690195,groupA
8.415851908315021,groupB
0.9539447885850383,groupA
9.47094812970375,groupB
5.54301318723479,groupB
9.922529860464627,groupB
5.068618440287455,groupA
7.133193203349166,groupA
8.576715242021574,groupB
7.9622720308104755,groupB
4.988153366285251,groupB
8.808666842405673,groupB
2.735599732609101,groupB
0.015401895151442302,groupB
3.6164832016073123,groupA
7.68817715434416,groupB
9.175145348709865,groupB
5.928766393698394,groupA
7.983282681601388,groupB
5.666076427105708,groupA
6.799425957316513,groupB
1.2827808976732435,groupA
3.1837897542616247,groupB
2.9953460643347385,groupA
8.2626038883764,groupA
4.666330843494912,groupA
2.807182748384717,groupB
1.9384693794317687,groupA
5.247579246681405,groupB
2.99452563513856,groupA
1.1946338210974716,groupA
1.7941205177545272,groupA
0.012866381991126774,groupA
3.8731148595603946,groupA
0.7571400185460364,groupA
2.349226619295579,groupB
2.169476725418132,groupB
4.482161480603814,groupB
5.503344843207384,groupB
2.787382074925743,groupB
3.960997920829298,groupA
2.530101494025833,groupA
7.427635515018945,groupA
8.62205117749481,groupB
7.692868526194619,groupB
2.621097221637375,groupB
3.5064012233107666,groupB
7.904363038454134,groupB
0.8305101152739214,groupA
5.580910060894199,groupB
8.731804036565793,groupB
2.2122442027485256,groupB
7.318709089063137,groupB
4.690356701411224,groupB
1.3328193580889558,groupA
7.535514356186665,groupB
4.243361338943208,groupA
0.7655685016171465,groupB
4.516477355156564,groupA
4.749556826414835,groupB
6.657151991456649,groupB
3.0792421296873753,groupB
9.600755617434189,groupB
0.8811376807691518,groupB
7.53735034966456,groupB
9.30912272875594,groupB
6.165772766117882,groupB
7.620529277106501,groupB
5.969882187418109,groupB
0.19511853616033248,groupA
9.151877075167537,groupB
6.6747065319049605,groupB
3.0111569025799634,groupB
2.144466241771441,groupA
1.9807572493163628,groupA
6.581130161950213,groupA
8.738451985830903,groupB
8.49877016279825,groupB
0.5363891584441116,groupA
8.848442719876724,groupB
4.950478117871146,groupA
1.0147877507716718,groupA
9.952807850723254,groupA
3.940891557019164,groupB
9.230237792976363,groupB
1.8535503177083867,groupB
4.820439474471763,groupA
8.202853515425574,groupB
7.7594257795473895,groupB
1.1545490743049336,groupB
1.815857782461071,groupB
9.69763181202598,groupA
5.72309073731639,groupA
0.3218032438367935,groupA
0.523939889776317,groupA
4.823578452151321,groupB
6.429537056519511,groupB
9.288924368346672,groupB
4.967801822714768,groupB
4.027243484801456,groupB
8.67670475712628,groupB
1.176813866145603,groupA
2.1706788272482234,groupB
6.858032586458949,groupB
8.424471639644178,groupB
7.420144513687989,groupB
9.993905860516266,groupB
6.745917354866852,groupB
6.703181442332711,groupA
4.220795359403158,groupB
0.04392689814935791,groupA
9.320973563358887,groupB
3.8416549233378894,groupA
9.28520677473618,groupB
1.1051535276933233,groupA
4.762568018988095,groupB
7.691223088959244,groupB
9.509197495658558,groupB
8.289563055494428,groupB
1.842264583258566,groupB
4.43284027545573,groupB
2.472926813062303,groupB
4.822030836331354,groupB
6.1271044125971414,groupA
7.877835091028009,groupB
0.278882820681724,groupB
9.49507766070114,groupB
6.701738987064529,groupB
1.7237659344687173,groupA
4.979323621552184,groupB
8.689333655740505,groupB
9.055597562106568,groupB
8.038380116714563,groupB
3.2624809187597226,groupA
8.296640216894758,groupB
8.115220751480209,groupA
0.06877841692650821,groupB
0.45884658240936127,groupA
6.700161111466031,groupB
6.2762714952491505,groupA
3.280269690680897,groupB
2.643499613737681,groupB
4.427740522780496,groupA
0.5423877189188375,groupA
2.0095065644782304,groupB
1.5949639354525147,groupB
1.4373316134092184,groupA
9.190643210452091,groupB
1.1775410857221014,groupB
2.6665363843348002,groupB
6.921749760674741,groupB
7.781313063462271,groupB
0.7773645336956825,groupA
5.867155972899622,groupA
4.708042717846274,groupA
2.6820274240608866,groupA
2.1730118592757073,groupB
7.3641977158780945,groupB
5.917066341291701,groupB
5.796155066427319,groupB
8.187874492433235,groupB
2.53236430180234,groupB
8.65266815323252,groupA
9.92900967159899,groupB
6.301666567734197,groupB
3.9971024429803026,groupB
6.687347737141876,groupA
0.593606902000573,groupB
5.520493280564787,groupB
3.867465867460912,groupA
7.95116863599328,groupB
7.294382749616345,groupB
1.3533751361420798,groupA
9.625608417647275,groupB
2.13064992225368,groupA
8.020362344722201,groupA
0.2608381794931236,groupA
7.635361001036186,groupB
0.8306649202662486,groupB
2.260435255949437,groupA
9.5950003021063,groupB
7.741667813437858,groupB
5.0001339259922535,groupB
5.097990718607317,groupB
2.802905858543551,groupA
1.3407724489271255,groupB
2.095308537851328,groupA
2.4693665385633876,groupA
3.1114049072324357,groupA
4.086483558499742,groupA
9.645314616919634,groupB
2.443253953086899,groupA
4.367082961590425,groupA
2.1328759195403304,groupA
5.354654214818612,groupA
1.2029953427920048,groupA
1.7018175340379071,groupA
7.664403159207957,groupB
4.956668140656996,groupB
4.441044019019273,groupB
0.48545025652263374,groupA
9.190391150427617,groupB
4.019323166063785,groupA
4.098823893270172,groupB
2.0824773466663893,groupB
4.535752492203157,groupA
5.567731673694308,groupB
8.143753152432431,groupB
3.439083750351127,groupB
8.090782528486892,groupA
1.4628209504462097,groupB
3.549901500107798,groupA
2.898420823094491,groupB
8.231078323655494,groupB
7.167663748273549,groupA
3.365037764404174,groupA
2.002762379420692,groupA
9.018735582895793,groupB
0.015953112229044608,groupA
1.073830351091981,groupB
6.7367375782498815,groupB
1.5765334664971453,groupA
4.013559870862973,groupB
5.117568490132806,groupB
7.7606901513222795,groupB
2.710082615084618,groupB
6.165359882852197,groupB
3.9616415876366142,groupB
7.960567799286581,groupB
0.3549027581839659,groupA
2.405644693980401,groupB
5.413507274431702,groupA
4.1025510592790395,groupB
9.755879071828295,groupB
5.470267919619176,groupB
0.7301633704867982,groupA
3.747567662347743,groupA
9.549037244717109,groupB
2.9997924825152267,groupB
4.503090008436765,groupA
6.792409994838799,groupB
0.3073355148235013,groupA
5.291638524144165,groupB
0.3018916068305255,groupA
5.218526110071133,groupA
7.924225574203626,groupB
7.3806544416492645,groupB
1.8708316461522545,groupB
3.7236799668080964,groupA
2.32583483355132,groupA
6.445465049375634,groupB
2.4242656350411607,groupA
5.981268643241973,groupB
6.403298897194125,groupB
0.30499971038085993,groupB
4.740514707949344,groupB
6.131583570602076,groupB
7.313274925020813,groupB
6.347053809976436,groupB
1.6156403803764374,groupA
6.791931467383661,groupB
0.07303362402266811,groupB
8.448704982398466,groupB
6.459262084529847,groupA
4.130228153260189,groupA
2.9364939877474185,groupA
6.105703518077714,groupA
3.8881401591272127,groupA
7.350148975988006,groupB
2.732676409703928,groupA
9.352155645617659,groupB
8.937634665453531,groupB
5.974630612494614,groupB
2.1255524405424717,groupB
2.35926570697118,groupB
4.647964157908505,groupA
9.496648731932039,groupB
6.655186202055142,groupB
0.5576517152983596,groupA
2.3168330840665288,groupB
2.9187211225457865,groupB
8.07915840507478,groupB
1.4056625652619936,groupA
7.511613043839608,groupB
0.2711996190935251,groupB
8.679053750409587,groupB
8.668733944460683,groupA
1.2157301832919598,groupB
9.948561058104579,groupB
4.1515434135479445,groupA
8.39350081983203,groupB
7.301886493644903,groupB
8.41581306144757,groupB
6.8833197795856895,groupA
1.2351827241415358,groupA
0.27959356745246744,groupB
7.0157184102987005,groupA
6.823605425963971,groupB
7.976510680329061,groupA
6.200401557253153,groupA
3.97255101775852,groupA
9.920685179925718,groupB
0.9787613562787012,groupA
2.309001444084684,groupA
5.678935876315441,groupB
8.877155842754568,groupB
4.916609856096876,groupB
9.933764590389167,groupB
7.627246217246796,groupB
3.593366505385357,groupB
1.923610117333806,groupA
9.991599147742233,groupB
2.2829445779183244,groupA
8.494622716022866,groupB
3.637973186747414,groupB
0.9584264423879285,groupA
4.389894424669527,groupA
6.453619563535961,groupB
0.4815197699524254,groupA
7.190977248206893,groupA
0.9614650386268675,groupA
8.297574988343028,groupB
4.689567314077745,groupA
7.884636338043495,groupB
5.0794306437351056,groupB
8.095618022773493,groupB
1.4661503901567918,groupA
7.86609882019534,groupB
7.847151609951201,groupB
6.315950368640493,groupB
3.466186171682418,groupA
4.842803519219548,groupA
8.895055854046797,groupB
0.3776391605115481,groupB
9.371576901917706,groupB
0.0013407898077377745,groupB
1.904431833288488,groupA
8.54588657866825,groupB
2.3681014987653484,groupA
1.1459664843594286,groupB
1.1082312743050415,groupA
3.0732754296935108,groupA
9.049381997998752,groupA
8.421356281706112,groupB
7.771900740427071,groupB
0.10756710461026997,groupA
1.8470241393963471,groupB
0.439954750719993,groupA
1.5989130880585734,groupA
1.3976553003471992,groupB
7.154840538619293,groupA
4.046605758881867,groupB
1.909128735267528,groupA
9.055511826438114,groupB
8.49114181563593,groupB
9.558230859939066,groupB
2.5865522231144666,groupA
3.489422669344575,groupA
6.406566131228992,groupA
8.014542387710575,groupB
5.188449982878175,groupB
3.622258796950417,groupB
9.444588953029978,groupB
0.5112737647608911,groupB
7.470837698307692,groupB
1.2514928131589653,groupB
8.815321001572459,groupB
7.148084140785203,groupB
2.8554941056377436,groupA
0.09239391677455688,groupA
2.0367701805392855,groupB
4.4407741894857935,groupA
7.199114218378203,groupA
7.963359633082881,groupB
1.586520444934425,groupA
2.4971364858038414,groupA
6.502936507244042,groupA
4.6074083314103795,groupA
5.5145469215711085,groupB
3.9567859273588524,groupB
6.016856599324044,groupB
0.7750067416473327,groupA
0.38728579542461894,groupA
5.110580863351672,groupB
2.3601363490209804,groupB
7.992873133627216,groupB
8.225366550343626,groupB
0.051380336811877036,groupA
4.834543438431184,groupB
5.577232486651954,groupA
9.092731361664585,groupA
2.8152738065079497,groupB
5.797040212896345,groupB
8.17793974092887,groupA
8.492001671126305,groupB
1.745236841507667,groupB
7.758713681157791,groupB
5.815462680329581,groupA
2.9875014635213013,groupA
8.585253012217937,groupB
3.4739330890352313,groupA
9.94318782826256,groupB
0.7496319107432736,groupA
0.7739904410961129,groupA
5.586956190586385,groupB
5.573901301251754,groupB
3.6973934338049674,groupB
5.078476575917829,groupB
2.0393151822944464,groupA
6.586360020374871,groupB
0.283592563027637,groupA
9.959052421814986,groupB
9.256024473384928,groupB
0.7041222577879391,groupA
8.86224310959568,groupB
1.1000724152973518,groupA
5.686394002037282,groupB
2.636538321792857,groupA
0.11118148261967109,groupA
2.4330106976252974,groupA
6.359228529423698,groupA
9.906978849721535,groupB
7.735062650323703,groupB
4.120206999240807,groupA
4.224379164302338,groupA
0.9758307402733568,groupA
2.19350175303659,groupA
9.60260136445028,groupB
4.913707889393002,groupB
0.4989717386542536,groupA
5.503763257324772,groupB
8.531328497446303,groupB
8.603972112399022,groupB
1.6436537021827735,groupA
2.2433902167630393,groupB
8.632642185774662,groupA
0.5601380112477949,groupA
1.10397982978236,groupA
4.180611652970789,groupA
2.073678513358642,groupA
2.0571462070556668,groupA
3.2022120462832273,groupB
2.9130619638568622,groupA
5.322202194046202,groupB
6.316884650497276,groupB
5.708526841921664,groupA
6.390905200237316,groupB
2.7896068535028853,groupA
2.1695147973086715,groupA
0.8327940628437558,groupA
4.10018207174641,groupB
5.519673975920413,groupB
7.887564371671174,groupA
0.4035189194683997,groupA
0.316174417227143,groupA
5.986363382921697,groupB
2.2992905777527772,groupA
8.31101079060015,groupB
1.5036481397240542,groupA
7.686311444007207,groupB
2.3354281523887077,groupB
5.707656893204598,groupA
9.408550651071234,groupB
4.993685134606878,groupB
9.790037888725742,groupB
3.675131496015278,groupA
5.390449242578709,groupB
0.8681745257427176,groupA
3.689938483728823,groupA
3.627493126896808,groupA
9.291767394507227,groupB
0.9966340066796986,groupA
3.3951298459733046,groupA
0.7551756055692416,groupB
0.8025455768246181,groupA
6.174328371839229,groupB
5.7403571499466,groupB
9.55636163105498,groupB
6.500586619548302,groupB
5.905780578393855,groupB
3.2400147910331976,groupB
0.7714427605721252,groupA
8.137787992051262,groupB
5.884520436943909,groupA
9.898124967870341,groupB
4.7491884041272145,groupA
9.384275490476375,groupB
8.095976083064526,groupB
3.494114746357586,groupB
9.939673720418334,groupB
9.181477027759778,groupB
2.522458204878073,groupA
4.574255352365052,groupA
5.4324393891134495,groupB
0.6110814021697553,groupA
3.901586531141464,groupA
0.7073637784982212,groupA
0.43605418074198043,groupA
8.245239860107558,groupB
0.6312010846131155,groupA
2.0199271406837562,groupA
9.618244273627113,groupB
3.259488013341405,groupB
8.000210033153971,groupA
9.487112877686574,groupB
3.1787870414845196,groupB
1.0874787661036223,groupB
6.5750647731761935,groupB
9.017908571224764,groupB
2.388985264115683,groupA
8.468354538494607,groupB
3.248538178419391,groupA
1.8493233794283204,groupA
1.6739741540640818,groupA
5.744725573702931,groupA
6.4678326023266735,groupB
9.189401238318741,groupB
4.803419044797367,groupA
2.0418770647950026,groupA
5.1531584575029,groupB
7.173672587596803,groupB
6.65206609664083,groupA
9.295813548194898,groupB
9.289956685593864,groupB
6.995343693895446,groupB
0.6476556818526369,groupB
0.2666324801495845,groupB
7.965742522641025,groupA
6.225404599069579,groupB
1.3871516644048565,groupB
2.9108573777459403,groupA
1.4078226409419226,groupA
6.763168377946098,groupA
9.01408854951028,groupB
1.4967994096531145,groupA
8.386198483662355,groupB
5.17745775075462,groupA
7.444877352638977,groupA
4.304606658415599,groupA
0.046040960592466096,groupA
4.25945960335977,groupB
9.138636406482881,groupB
9.799971474271194,groupB
9.039011110434846,groupB
3.974603555140319,groupB
0.14579893507608577,groupB
1.918821505430659,groupA
6.789122587923422,groupA
3.4559106716805577,groupA
7.061418068387991,groupB
0.12981452038325236,groupA
7.257133428111749,groupB
7.727038076090632,groupB
2.2594858588362987,groupA
8.8008931986133,groupB
7.901781785770777,groupA
7.200435434431174,groupB
1.4982534600338793,groupA
1.103140674227494,groupA
5.264431516809004,groupA
0.10406573673856334,groupA
3.3607149042380033,groupB
6.226012261720712,groupA
6.157503375246972,groupB
7.507238987728254,groupB
8.820144921627808,groupB
1.5078040793938963,groupB
5.591826280209201,groupA
3.919222894203819,groupB
0.882602989075747,groupA
7.627763925507418,groupA
8.952902713484544,groupB
9.11910606393906,groupB
4.235161240775574,groupA
0.15415048109299723,groupA
0.49391914376515467,groupA
6.256387472173324,groupA
7.192545794987727,groupB
2.357110853904587,groupA
9.760792978330757,groupB
8.872121529900804,groupB
8.151909086422275,groupB
5.6065801963590625,groupA
6.252025781100637,groupB
3.5821274563787964,groupB
4.995345482018029,groupA
6.1822975732189445,groupB
4.43776989208442,groupB
3.2074880641853243,groupB
3.2760488719250604,groupA
2.6931127957307632,groupA
2.556181689550543,groupA
6.322742761720054,groupA
1.0339243051927893,groupA
1.2722933487095023,groupA
0.5525135966841854,groupA
6.927057675519248,groupA
9.251068197193478,groupB
6.489670678186258,groupB
3.652829914872741,groupA
2.355157237634058,groupA
5.411537861374712,groupA
2.6739659961883335,groupA
6.738892926478983,groupB
7.9786508601231265,groupB
7.6018004849759935,groupB
1.7121234748673186,groupA
1.6265359835592275,groupA
4.769022625472229,groupA
0.900419442639262,groupA
0.9982557489927191,groupB
0.10335684224112685,groupB
5.684188254506584,groupB
0.3739366003693778,groupA
6.122969279454153,groupB
3.053217659396142,groupB
1.1030989027156946,groupA
3.330295719162094,groupB
2.173201485231413,groupB
2.928981191075384,groupA
3.388111625696081,groupA
1.1850459242573863,groupB
0.6708507652880402,groupA
8.319017664204317,groupA
9.042175047783589,groupB
0.5662394991296882,groupA
4.701743922258873,groupA
5.318931573306872,groupB
1.0055266351863135,groupA
7.4123845964042605,groupA
6.6299362161901385,groupB
8.143091355452349,groupB
7.281505737134366,groupA
3.68883080961559,groupA
2.879812219468987,groupA
8.009995094530732,groupB
8.388949926387482,groupB
6.9400418238463635,groupA
0.9925214251489556,groupA
4.274214528581183,groupB
9.923931550885891,groupB
9.780622200757099,groupB
0.8852770445744673,groupA
9.362224562730672,groupB
6.809499936940603,groupB
2.2727334429517487,groupA
5.792039329505709,groupA
0.9502652354565821,groupB
8.37056404149167,groupB
1.2014122331347499,groupA
7.5409331952232,groupA
2.4936252764893876,groupA
3.1628217610048095,groupA
8.895819021898879,groupB
4.894987784991951,groupB
0.5162687251092823,groupA
6.199110788856727,groupA
1.4008519202871095,groupA
4.884749088378423,groupB
2.67921064988991,groupA
9.761986746902247,groupB
3.5208896279672697,groupA
3.099120809430799,groupA
0.5908368824345767,groupA
9.99462836569949,groupB
2.1704226462419074,groupA
5.448202692435706,groupB
1.4716413964076602,groupA
1.769068786231729,groupB
1.3035329107617133,groupA
7.1115670849303045,groupA
1.352477649397118,groupB
2.5056830338538605,groupB
1.7778388084382257,groupA
3.348599625463055,groupB
2.526049510359755,groupA
4.44404088435142,groupB
9.254648547724603,groupB
6.154379641947587,groupA
9.886380364315162,groupB
3.8446136459603797,groupA
7.655446086604573,groupB
2.94384737286973,groupA
4.824547890483611,groupA
3.454102153455424,groupA
5.888957679818744,groupB
1.556337458178636,groupB
4.088938789023738,groupB
1.7337855732616025,groupA
1.230200400544641,groupA
5.878237505048897,groupA
1.8963071084646455,groupA
3.4884846842650132,groupA
4.664109533901427,groupB
9.73865476407073,groupA
1.3713984847489236,groupB
3.020431152537096,groupB
6.0863273176800226,groupB
2.8653676352730093,groupA
0.7169799376374075,groupA
3.3632541336982458,groupB
0.961057100627094,groupB
1.4885803327722558,groupA
7.3356688990219485,groupB
5.840876540450193,groupA
3.942781374955496,groupA
0.5094087527335389,groupB
1.246638445044812,groupB
9.677564547439166,groupB
9.241139740793347,groupB
2.338696780294527,groupA
6.714471032869653,groupB
4.910655044580652,groupB
5.906135333224504,groupB
5.858509227490158,groupB
7.028282747506957,groupA
5.8972825480969595,groupA
8.587574077894857,groupA
4.231055633306773,groupA
3.1746399970418615,groupB
1.450212354916306,groupA
9.125548368870387,groupB
2.2141935168365876,groupB
8.919370783221277,groupA
9.49385170709217,groupB
1.0988226528293732,groupA
7.4441186641778225,groupB
6.076536845737863,groupB
4.2266097928062365,groupA
1.3299751730564369,groupA
8.98820715276594,groupB
7.8667074859101,groupB
6.4557158898463785,groupB
8.548572733443082,groupB
3.996796499804897,groupB
0.9641677008804928,groupA
9.099839349243688,groupB
7.768799327761212,groupB
6.103319757136462,groupA
8.660423293940283,groupB
0.11657864968835252,groupA
8.361828052896085,groupB
9.417708604521378,groupB
6.429747385446969,groupA
1.3080616155018987,groupB
6.805579125694109,groupB
9.577192564093808,groupB
4.815663448965211,groupA
9.809226762753859,groupB
0.27887293702374083,groupA
8.879114301383842,groupB
3.0530882133741932,groupB
7.5092848331578566,groupB
1.830623623527886,groupB
9.508483494410102,groupB
5.130999696377403,groupB
4.355596896604943,groupB
0.08864569364861907,groupA
6.243795494414325,groupB
0.3603286760559532,groupA
3.317705902292899,groupA
8.26161901056565,groupB
4.701946672194451,groupB
5.06046330309434,groupB
5.843221894850461,groupA
6.510313658839573,groupB
0.5594962659877223,groupA
5.178165661321521,groupB
6.731135713422293,groupB
5.192550405881241,groupA
9.624359664986809,groupB
0.8114958699525243,groupB
0.515144274702567,groupA
1.6866133283337514,groupA
3.959354022400514,groupB
9.378889525846493,groupB
8.441635335768513,groupB
1.7296754582891571,groupA
9.275690796356722,groupB
1.0439988414324008,groupA
5.914834191536899,groupB
4.824783194992367,groupA
7.788088366503495,groupB
6.818161101544291,groupB
6.554693123599666,groupB
8.219322390676137,groupA
5.889993920267951,groupB
0.19605417015860493,groupB
6.6796105861709885,groupB
2.280682162867116,groupB
0.07253531918724243,groupA
8.261614444690315,groupB
5.712975842516824,groupB
2.4258014858782397,groupA
8.148101873637966,groupB
8.799785191453605,groupB
5.56550680034362,groupB
5.828952864223014,groupB
7.191448243216434,groupB
9.278006614388,groupB
9.028888276699126,groupB
0.25873441233323247,groupA
8.789261874115352,groupB
9.676205754403139,groupA
1.413485707891442,groupA
3.9968543344975616,groupA
5.773313620920034,groupA
9.445776574321556,groupB
5.5758815656794205,groupB
9.877619787143685,groupA
0.15143741475548866,groupA
4.61081055180963,groupB
1.8313542792540827,groupA
9.161653493768569,groupB
7.462254916965012,groupB
1.7765182564609405,groupA
6.471650900459638,groupA
6.917472528462135,groupA
9.250082040240764,groupB
4.0120370459077614,groupA
5.367682383448439,groupB
5.621231529992922,groupB
9.240932443754351,groupB
9.003010307898572,groupB
8.807071147694112,groupB
7.1828869373272255,groupB
4.52275914766037,groupB
2.1426291696733166,groupA
5.893491064188025,groupA
1.0448289830196789,groupB
5.485665511875034,groupB
8.311087344105466,groupA
8.832912860587157,groupB
1.4488902471095644,groupA
5.322073060318542,groupB
2.7893185871268997,groupA
0.7844154283524074,groupA
5.595610466267341,groupA
4.852842742404697,groupA
8.213779885225476,groupB
3.9120970368782526,groupB
4.985468179069042,groupA
2.631943136921496,groupA
4.699134115041704,groupA
4.310512104076353,groupA
9.589009168530067,groupB
5.457004326422563,groupB
0.5727855530342896,groupA
6.778437661143388,groupA
2.0886629546574644,groupA
5.312338708239156,groupA
2.761033081283161,groupA
8.392830580181524,groupA
1.8105638248437572,groupA
5.59981513179165,groupB
7.266481628361059,groupB
5.613533012247215,groupA
3.25465382807659,groupA
0.4451648003471087,groupA
9.749450469018658,groupB
4.575314741537357,groupA
6.564234416416249,groupA
4.545472162025495,groupB
4.685323529142691,groupB
9.361664611385821,groupB
9.674253613021817,groupB
9.059072537824322,groupB
4.471739755893255,groupB
3.687567470918911,groupA
8.156945268798133,groupB
8.511918420949884,groupB
0.10461766860733412,groupA
9.548269032517373,groupB
6.453760742078989,groupB
9.653542066117616,groupB
5.374381086688351,groupB
3.238448719242646,groupA
6.847372750088873,groupB
1.1585647496862328,groupA
2.0412993154933465,groupA
7.650749780089088,groupB
2.384132219787408,groupA
1.5226648398575193,groupA
4.063213858538914,groupB
7.082443471188451,groupA
0.29675363180615033,groupA
5.4000484009628735,groupB
1.945478904111142,groupA
0.7910982311591241,groupB
0.18395100902163564,groupA
7.896630530780785,groupB
0.7808481593030503,groupA
7.340181974372189,groupB
9.25676648420804,groupB
4.361884831124008,groupB
7.009174427839552,groupB
8.177997965571166,groupA
6.9326799392609315,groupA
5.374004297291336,groupA
3.6597977482043675,groupA
4.931448322589223,groupB
5.6142942373867,groupB
3.71769712443055,groupA
3.4937728784026643,groupA
6.321788069175751,groupA
9.889209286428539,groupB
1.010452296761133,groupB
5.532764301018393,groupA
2.393470963892023,groupA
4.985144925973017,groupB
5.5090388955877,groupB
6.78441500127062,groupB
2.578867131902257,groupA
8.056722707757661,groupA
1.7596585691073285,groupA
6.2319020199057675,groupB
0.9092351902447215,groupA
4.808578323921571,groupB
4.847648033845947,groupB
8.373636777795937,groupB
4.052817561747197,groupB
4.708415492741174,groupB
2.7297492949965942,groupA
4.646771542022215,groupA
2.660019085234665,groupA
2.341741381237447,groupB
5.636304246374798,groupB
1.1582347227581336,groupA
2.287737974897893,groupA
0.6296264877027746,groupA
0.9236214978240587,groupA
3.3360921573586877,groupB
9.743296487144933,groupA
5.087892498575361,groupB
9.618285760776775,groupA
2.802472206550639,groupA
3.5349731119552077,groupB
2.060446757474974,groupB
9.774148359289734,groupB
9.201286200121077,groupB
1.9616164799699631,groupA
9.01455095205462,groupB
4.676752704381542,groupB
2.477378685820373,groupA
9.657631334972814,groupB
1.2388942799967861,groupB
6.865316908076057,groupB
6.630201312077438,groupB
7.790011667019362,groupB
7.427479568224071,groupB
3.3542081138963376,groupA
9.030035604726752,groupB
5.957987028397296,groupB
1.0482537501583267,groupA
2.747923866097576,groupB
4.607288385159559,groupB
5.768944263505773,groupB
5.563669523812304,groupA
1.0485219126221468,groupA
8.568384360542964,groupB
9.371065002870107,groupB
8.56320057099906,groupB
2.7135430404748684,groupA
6.561903139030396,groupB
7.446755411824894,groupB
2.8512678114169976,groupB
5.26582572499847,groupB
6.5662298338222875,groupB
3.563408354179538,groupB
5.267839110913277,groupA
5.7830467709692455,groupB
1.1892886694126326,groupA
7.8100305824475456,groupA
6.35664662876561,groupB
2.671917494304096,groupB
3.89975844264404,groupA
6.509235094033711,groupB
4.384803100061436,groupA
5.996048407738826,groupB
4.129186404832195,groupB
4.892250951894975,groupB
5.198584898579778,groupB
9.48264081984861,groupB
7.721024462132174,groupB
1.0868914997059675,groupB
8.108084667264771,groupA
0.3552080160238713,groupA
4.2249173093429295,groupB
6.940551004893542,groupB
6.65679489380734,groupB
2.9700372519148086,groupA
6.755504061188393,groupB
0.14671063191236677,groupA
9.57326695341368,groupA
5.4844233408201015,groupB
4.111163584963423,groupA
3.147360297595274,groupA
0.33679449305868414,groupA
7.534888273325723,groupB
6.479951690528782,groupA
4.347093275330072,groupA
6.127359257856933,groupB
1.2025025319747384,groupA
3.0915659441599863,groupA
2.5181538652664317,groupB
7.075388982801732,groupA
7.907603267609893,groupB
2.6934412064582824,groupB
3.8388268884921306,groupA
1.8764409448386077,groupA
3.7939986825679317,groupB
0.6676565816089997,groupA
4.948494853933603,groupA
4.280794049894006,groupB
4.588229000096846,groupA
2.2386077602821963,groupA
3.598361357594536,groupB
8.592845577518759,groupB
4.776460989528253,groupB
1.6685224627075346,groupA
9.023002994452195,groupB
9.098695623733953,groupB
2.6226883984925076,groupB
7.061751504824088,groupB
6.868968283013927,groupB
4.854620469374725,groupB
2.4184341830230496,groupB
8.705993194216177,groupB
2.425836036300887,groupB
5.18030968425424,groupB
5.18030968425424,groupB
4.236183385133159,groupA
2.4196029838246136,groupB
1.7644060517234605,groupA
3.7685255384557403,groupA
3.1551200685179035,groupA
4.643039618446142,groupA
3.166724491817352,groupA
7.900768152541921,groupB
8.706026528846921,groupB
1.847190574651486,groupB
2.622924971562922,groupB
9.793838504117764,groupB
8.3786893204809,groupB
6.913452184451131,groupB
3.0785539036451315,groupA
6.635926402901511,groupB
9.15499011144358,groupB
0.49539389086142194,groupA
0.17014039574995365,groupA
5.037759954306584,groupA
8.847813407712765,groupB
6.868768025773475,groupB
9.231941848742583,groupB
1.1529476854234044,groupA
5.682594190502899,groupA
4.628401250756735,groupA
2.9575134069455613,groupA
4.934218569829949,groupA
4.166059474947721,groupB
0.8537969006485802,groupA
4.039208286354556,groupB
2.304792476346371,groupB
7.4255805480263595,groupB
8.440438321053414,groupB
6.888876669147206,groupA
2.446399881173187,groupA
8.42137586630586,groupB
5.424997321199171,groupA
0.8845922642256843,groupA
5.041002488839858,groupB
2.750148219528188,groupB
9.907767707697094,groupB
9.930646119128145,groupB
8.84932976280642,groupB
5.158967868447069,groupB
7.026332248695359,groupA
9.119524075936335,groupB
4.2569319982314715,groupB
6.827354129920496,groupA
5.136107030178458,groupB
5.322067108060796,groupB
7.75236847710104,groupB
5.377445569701957,groupA
6.525139177354592,groupB
0.2012068975699921,groupA
1.2008510117712234,groupA
9.329410860221891,groupB
5.595246526122754,groupB
8.760039282019248,groupB
7.312478788294738,groupB
1.1932010416782513,groupA
1.2859237078436903,groupB
5.629725675307766,groupB
0.04310671928223431,groupB
1.908442732689084,groupB
4.751794056607391,groupB
3.1287756234116024,groupB
3.567650192577613,groupA
5.210552570813971,groupB
1.9228920045467623,groupA
7.153344992984749,groupB
0.7837959026121799,groupB
5.4805861650421,groupA
9.917613465878627,groupB
8.377746222596274,groupB
5.485880371515633,groupA
1.4652712034327053,groupA
7.522415935109884,groupB
0.46361698687407915,groupA
5.935163661055606,groupA
1.1371529749892662,groupB
1.6256594895082943,groupB
4.122068994519354,groupB
9.67862309878784,groupB
8.076679866086257,groupB
1.9645227414702982,groupA
5.291368718932928,groupB
4.362217977036983,groupA
5.74089887792315,groupB
6.526562511623021,groupB
8.447702830455269,groupB
9.76863747580801,groupA
4.4485994062516525,groupB
4.997888390155522,groupB
7.4415975251451405,groupB
6.299804008889579,groupA
3.9392716948461146,groupA
0.6684436818642281,groupA
8.249513663963919,groupB
2.130675562036799,groupA
7.001987609110744,groupB
4.935705346269197,groupB
1.8697469434194136,groupA
8.886657086694337,groupB
2.4378388300520437,groupB
8.079094837064424,groupB
4.213473396313302,groupB
6.139477099788922,groupB
7.002201171097545,groupB
5.240185300789437,groupB
0.40380080754787495,groupA
1.5667135890806871,groupA
9.925923160756065,groupB
4.813789753468258,groupB
7.274968021944685,groupB
3.1630412084335657,groupB
2.0613838023625797,groupB
4.851351464068112,groupA
3.15607396849121,groupB
5.405224906251714,groupB
7.032803600181287,groupB
1.0636350731473199,groupA
3.043384253152831,groupA
4.330170475348356,groupA
9.35156531077298,groupB
1.891157475493348,groupA
9.045540767309245,groupB
9.751990653209537,groupB
5.116666765010106,groupB
3.538514246544712,groupA
6.27885399617515,groupB
2.579792120647635,groupA
3.45663268245028,groupA
2.3368728076591747,groupA
2.3368728076591747,groupB
8.165991221625145,groupB
3.7562829216440905,groupB
0.5498217979954556,groupB
7.1453130478289,groupB
9.040232630950308,groupB
9.665581575724326,groupB
5.121413162795028,groupA
9.408052612557205,groupB
6.987256439885944,groupB
8.997809859031305,groupB
2.462519960566251,groupB
8.976259426399224,groupB
3.5940995492066063,groupA
3.6429251794073636,groupA
8.923686240075407,groupB
5.749310503946571,groupB
5.749310503946571,groupB
6.566202472128905,groupA
2.945324900099433,groupB
6.644048306998417,groupB
8.803848457283378,groupB
4.5827584712074465,groupB
6.906277896378792,groupB
8.100023840558062,groupA
9.016495113999973,groupB
9.016495113999973,groupB
4.071141039344706,groupA
1.089257202275773,groupA
6.473596157436968,groupB
8.647967760298783,groupB
4.294936569770296,groupA
9.073483205185356,groupB
3.3989264393122975,groupA
2.1867713153639556,groupA
8.987762896132871,groupB
8.417001818661696,groupB
3.3647173472114056,groupA
9.537474028472579,groupB
0.16606519661710006,groupA
2.929643916147003,groupB
9.914816066254286,groupB
2.813487061972957,groupB
7.376643366489342,groupB
8.40927799252347,groupB
4.256044798612708,groupA
6.332615866780405,groupB
6.332615866780405,groupB
4.8557433013403175,groupA
5.24664260899062,groupB
1.3740069301641256,groupA
0.5346062123843409,groupA
0.4918385932688385,groupB
9.933224433964343,groupB
2.167239553248268,groupA
1.4063381346924009,groupA
6.408179938796994,groupB
7.585430083793657,groupB
5.298871225809582,groupA
9.41887367550132,groupB
7.947026845574587,groupB
9.292670168810949,groupB
7.762979978725904,groupB
5.1016428806542455,groupB
9.097117061105378,groupB
5.166711368380743,groupA
4.868979658337445,groupB
1.1967699397388398,groupA
0.43011561201444337,groupA
6.268282885585439,groupB
5.229135410063181,groupA
5.188821008423476,groupA
4.589937803812952,groupB
4.561681388233023,groupB
4.128086346658716,groupB
7.073706767906073,groupA
2.719179421315091,groupA
9.240063930544585,groupB
4.564085794052093,groupB
9.04051492174229,groupB
8.036367510138737,groupB
3.3079697081662083,groupB
2.4533968798250383,groupB
9.660798468074209,groupB
4.442053075142569,groupB
5.431921719486999,groupB
4.624484908943675,groupA
0.9242046935317882,groupA
4.595378964791314,groupA
6.5969764949012255,groupA
1.9086449913787973,groupB
2.5839454249428817,groupA
3.6488541741057654,groupB
7.952825567311482,groupB
6.938586649697661,groupB
2.680859495031347,groupB
8.759615259378977,groupA
7.907293055089152,groupA
7.245072568628897,groupB
3.5448426011365353,groupA
6.8311614739113224,groupB
1.6313042849458148,groupB
9.411588522759063,groupB
9.115131104664988,groupB
1.619846663115062,groupA
1.8749186008114327,groupA
2.8944929053598756,groupB
7.007931670830873,groupB
8.523533661644445,groupB
4.649818789068785,groupB
4.649818789068785,groupB
1.5962687009141174,groupB
9.666608157520264,groupB
9.93268450758902,groupB
8.794496724000219,groupB
4.31619305466092,groupA
5.275193959658774,groupB
4.062499008800354,groupB
2.6828079462164753,groupA
2.6828079462164753,groupA
9.188522864810007,groupA
5.363290645570141,groupB
5.512971554742105,groupB
0.9368166648781484,groupA
2.5145054429561045,groupA
1.4860774364813722,groupB
0.45510522094783346,groupA
6.626966581200588,groupA
4.8312407288941985,groupB
4.677587165398683,groupA
4.06797784866728,groupA
1.3463348267642983,groupA
0.43646482896085415,groupA
5.042742729626568,groupA
2.6235709942367857,groupA
4.08458562695572,groupB
5.1712780091564685,groupA
3.711772699440614,groupB
9.12373234578537,groupB
9.12373234578537,groupB
5.9484895978736585,groupA
8.289035919976333,groupB
9.111200373582339,groupB
5.5445300316563015,groupB
8.520546960429616,groupB
0.4131223416232288,groupA
5.1339906370412205,groupB
9.164519336775182,groupB
9.650096959238093,groupB
1.5829839143452418,groupA
1.1868025765361778,groupA
1.1868025765361778,groupB
6.990818574099804,groupA
8.46083088181793,groupA
2.3491672128445407,groupB
6.467520368512021,groupA
4.514780016538294,groupA
6.657135421364117,groupB
0.9155300543123934,groupB
1.2379483306212924,groupA
0.7107002526700479,groupB
2.235162005288304,groupA
0.020345043426249765,groupA
1.7051746788556454,groupA
4.838354021160725,groupB
4.462733890951599,groupA
6.146518687434606,groupA
7.6547418898015405,groupA
5.943888098440696,groupB
1.5886840249076295,groupA
8.772192963171408,groupB
0.7773259169155367,groupB
8.413208500033814,groupB
9.874202822865701,groupB
9.702896909162677,groupB
9.129746830752874,groupB
6.175665021355442,groupA
9.997317187920979,groupB
8.520256373464303,groupB
9.146212299381181,groupB
0.5604917527758635,groupA
4.051456632400349,groupB
4.263888836539108,groupA
0.6858574294765496,groupB
0.6858574294765496,groupA
7.969863906434503,groupA
8.718720309294913,groupB
0.5250604629379263,groupA
4.73080132188729,groupB
0.7649685765578118,groupB
1.820197803342567,groupA
9.034320532073762,groupB
4.341708697041547,groupA
9.598419254835044,groupB
5.495548220253377,groupA
8.900712880337805,groupB
1.4856419707400703,groupA
6.119582058957081,groupB
8.501739434028199,groupB
6.206133309925386,groupB
6.206133309925386,groupB
9.367929762966986,groupB
8.99965653655231,groupB
7.399950311204887,groupB
3.442522104299044,groupB
8.263766571324027,groupB
2.7601016662231794,groupA
5.167369922338613,groupB
5.0382024807402725,groupB
3.7379430707120163,groupB
1.3494367131523477,groupA
0.5680344529579906,groupB
4.1578499723820315,groupA
8.087852419553302,groupB
8.087852419553302,groupA
6.926508707830784,groupA
0.5786692291623907,groupA
5.252149119380927,groupB
7.214895446311091,groupA
8.21872992853423,groupB
5.520277908929606,groupA
5.120743224597711,groupA
6.635488548161796,groupB
3.195989610473248,groupB
5.116208676196418,groupA
4.146921887477348,groupB
7.5417022973856715,groupB
2.918139252167995,groupA
2.918139252167995,groupB
7.398633432548244,groupB
5.944715081364905,groupB
9.61353628290628,groupB
9.278089641125796,groupB
8.727577215881281,groupB
2.977493183046458,groupA
4.414076604301938,groupA
0.1943585205650078,groupA
5.77334876678837,groupB
3.279377388658257,groupA
6.753210978899531,groupA
4.545804202672306,groupA
1.341694589161142,groupA
7.723099602521386,groupB
1.316801617255563,groupA
2.9454876747862277,groupA
8.68227677261708,groupA
2.285454637863673,groupB
5.401655136969491,groupB
3.197071418595238,groupB
0.29988980016422473,groupA
7.388031680135889,groupA
2.8914018954550915,groupA
4.0615990728309805,groupB
0.26272689107527114,groupA
9.029033965838469,groupB
9.117411639505526,groupB
2.5993427983913375,groupA
5.145234286224062,groupB
9.433055228741816,groupB
9.433055228741816,groupB
5.278751996823418,groupB
7.873882010548988,groupA
0.7206644032445797,groupA
9.159737943269445,groupB
9.159737943269445,groupB
6.296348459354149,groupB
2.965605864386834,groupA
2.965605864386834,groupA
5.590136904984016,groupB
6.828126940845932,groupB
8.8430592925773,groupB
3.010166258215201,groupB
1.4543399914294985,groupA
1.4543399914294985,groupA
6.098831834251835,groupB
0.6612245393138294,groupA
6.043441141621539,groupB
3.6482258411371027,groupB
3.6482258411371027,groupB
3.6482258411371027,groupA
4.547144109460223,groupB
6.834041708703472,groupB
6.7065589418764215,groupA
6.909192064677941,groupB
6.909192064677941,groupB
6.909192064677941,groupB
6.909192064677941,groupB
3.262109256260005,groupA
9.442228511267249,groupB
7.969393662721353,groupB
5.770054644173931,groupB
5.093045822534298,groupB
9.88201667659649,groupB
9.814399160989453,groupB
9.814399160989453,groupB
8.188126669713068,groupB
9.57872160793013,groupB
9.57872160793013,groupA
9.57872160793013,groupB
9.57872160793013,groupB
6.257464244724073,groupB
4.849146980808893,groupA
5.36318523307491,groupB
5.36318523307491,groupB
2.846661219314427,groupA
2.846661219314427,groupB
4.7460054324946475,groupB
1.8686744305086123,groupA
1.5760549952671288,groupA
5.74095393540471,groupA
4.071493775051783,groupA
8.969686691037573,groupB
0.3057211852936681,groupA
5.6752811600904876,groupB
6.447848364728791,groupB
6.447848364728791,groupB
6.648505861614755,groupB
6.648505861614755,groupB
7.959826244337344,groupB
0.23126731361134634,groupA
9.166691627933675,groupB
9.166691627933675,groupB
8.832846430506237,groupB
3.9783734253475,groupB
3.9783734253475,groupA
9.317001031520567,groupB
5.825717302789764,groupA
0.6622569527473199,groupA
0.6622569527473199,groupB
0.6622569527473199,groupA
6.634458879963427,groupA
9.221766304957395,groupA
9.806305242856574,groupB
7.420332720376414,groupB
1.943661235704277,groupA
5.5744712101535985,groupA
9.628303794160301,groupB
9.929274068073026,groupB
9.183848180930724,groupB
2.9275716265567686,groupB
3.1997555948127134,groupA
0.2585244918677365,groupB
0.2585244918677365,groupB
9.691864063854197,groupB
9.691864063854197,groupB
9.306758001790847,groupB
7.546346006771033,groupB
4.3072226008022145,groupB
4.3072226008022145,groupB
6.008879593753865,groupB
2.919406203088161,groupA
1.49985409420212,groupB
7.947051961482572,groupB
9.851858199593803,groupB
1.6006047282934277,groupA
0.04105849397608052,groupA
3.4284343012892027,groupA
9.648156945399837,groupA
9.648156945399837,groupB
9.648156945399837,groupB
0.26203670966920667,groupA
1.868250151656211,groupA
6.8483547425202325,groupB
9.930984528653507,groupA
7.332458306881923,groupB
2.4794087299895686,groupA
4.0606339570674646,groupB
5.296309437355494,groupA
5.296309437355494,groupA
3.1440329971971,groupA
3.1440329971971,groupB
3.1440329971971,groupA
7.139567367866909,groupB
6.606133184215695,groupB
4.001611600832127,groupB
4.600200398605375,groupA
4.600200398605375,groupA
4.924082150903752,groupB
5.3968657557348685,groupA
9.872112603037893,groupB
4.900643200694264,groupB
4.900643200694264,groupA
2.2963250157086392,groupA
2.2963250157086392,groupB
4.068797895402843,groupA
4.068797895402843,groupB
3.793073242066084,groupB
1.2086091916650865,groupA
2.951364064434918,groupA
6.4063975004060945,groupB
6.6234249175373785,groupB
9.005403802043382,groupB
7.835882326528961,groupB
7.835882326528961,groupB
0.03973538697653822,groupA
6.376175615647029,groupA
6.376175615647029,groupA
9.535146690213539,groupB
3.083061740935853,groupB
7.94282784099982,groupB
7.94282784099982,groupA
2.5782008190642083,groupB
2.5782008190642083,groupA
6.717438423201249,groupB
6.717438423201249,groupB
4.167285180387667,groupA
8.059404013591875,groupB
7.043484849098375,groupB
7.043484849098375,groupA
7.043484849098375,groupB
7.043484849098375,groupA
5.682751719815848,groupB
5.682751719815848,groupB
6.818975536591728,groupB
1.807579290599588,groupA
1.807579290599588,groupA
1.807579290599588,groupB
1.807579290599588,groupA
1.160615185004572,groupA
5.620222524664388,groupA
1.4200314257212754,groupB
3.1449835633039633,groupB
7.092118470668385,groupB
1.8438913816731406,groupB
9.84432012033373,groupB
9.40640998411419,groupA
9.40640998411419,groupA
9.40640998411419,groupA
1.9885934038123443,groupB
3.273920016910008,groupB
3.273920016910008,groupB
6.478418757689028,groupA
3.071499198289498,groupB
7.006786993167929,groupA
2.255207379833448,groupA
2.255207379833448,groupB
2.255207379833448,groupA
7.7618922025830726,groupB
4.013533168499474,groupB
4.253808640903546,groupA
9.627229973591216,groupB
3.6742713422507856,groupA
5.374047001039877,groupA
5.374047001039877,groupB
6.0193381778034425,groupA
3.0146660082027807,groupA
3.0146660082027807,groupA
3.0146660082027807,groupB
3.0146660082027807,groupB
3.0146660082027807,groupA
6.661662460141709,groupA
6.661662460141709,groupB
6.661662460141709,groupB
2.972383368959859,groupB
9.15747611268897,groupB
4.696002412275862,groupB
4.696002412275862,groupB
4.696002412275862,groupA
4.696002412275862,groupB
4.696002412275862,groupB
7.377488881228574,groupB
7.377488881228574,groupB
9.783950866441012,groupB
9.783950866441012,groupB
9.187080526435386,groupB
9.187080526435386,groupB
9.187080526435386,groupA
9.187080526435386,groupA
4.363203670935592,groupA
4.363203670935592,groupB
4.363203670935592,groupB
4.363203670935592,groupB
4.363203670935592,groupA
5.990872827196933,groupA
9.414024123764845,groupB
0.6350345152033665,groupA
4.314718750608777,groupB
3.7179980481452746,groupA
3.7179980481452746,groupB
8.282384563398598,groupB
2.985673243903019,groupA
2.985673243903019,groupA
2.985673243903019,groupA
0.8004348452667198,groupB
0.8004348452667198,groupB
0.8004348452667198,groupA
2.5255927803594522,groupB
2.5255927803594522,groupB
2.5255927803594522,groupA
7.263643690780849,groupB
7.263643690780849,groupB
2.050078213104155,groupA
6.50325331347438,groupB
6.50325331347438,groupB
6.50325331347438,groupA
4.8543295139440374,groupB
3.3631920626301035,groupB
3.3631920626301035,groupA
9.953385015078995,groupB
9.953385015078995,groupB
9.609067853940239,groupB
9.609067853940239,groupB
9.609067853940239,groupB
7.770102105552123,groupB
7.770102105552123,groupB
7.770102105552123,groupB
7.770102105552123,groupB
8.432537565949666,groupB
9.672657747575931,groupB
4.165163982130706,groupB
2.573182204841744,groupA
9.442348144052591,groupB
2.1520461363615695,groupB
2.0052545030015456,groupA
2.0052545030015456,groupB
2.0052545030015456,groupB
6.823335277581228,groupB
7.157432997973996,groupA
1.5793465634654513,groupA
1.5793465634654513,groupA
1.5793465634654513,groupB
6.44508947734329,groupB
6.44508947734329,groupB
8.560979826325482,groupB
2.634698996222732,groupB
2.126023986519873,groupB
2.126023986519873,groupB
3.2121740661855966,groupA
4.652028796961417,groupA
4.652028796961417,groupB
4.652028796961417,groupB
4.652028796961417,groupA
3.4509593114921544,groupB
3.4509593114921544,groupB
3.1222236015005533,groupB
3.1222236015005533,groupA
3.1222236015005533,groupB
1.1216544280011642,groupB
6.432562765861338,groupA
0.3393295651349282,groupA
8.644076279965777,groupB
8.644076279965777,groupB
8.644076279965777,groupB
8.644076279965777,groupB
8.644076279965777,groupB
8.271732478408707,groupB
5.798099051465533,groupB
5.798099051465533,groupB
5.566525601350282,groupA
7.311196257744932,groupB
7.311196257744932,groupA
7.311196257744932,groupA
7.311196257744932,groupA
3.898616493731729,groupB
3.898616493731729,groupB
5.533797957772423,groupB
4.233105154135496,groupA
4.233105154135496,groupA
4.233105154135496,groupB
4.233105154135496,groupB
2.799949171230649,groupA
2.799949171230649,groupA
9.36433514626846,groupB
9.36433514626846,groupA
5.823164767510818,groupA
5.823164767510818,groupA
5.823164767510818,groupB
0.25781605379465833,groupA
0.25781605379465833,groupA
0.25781605379465833,groupB
0.338850416722003,groupB
0.338850416722003,groupB
7.3808140562182505,groupB
7.3808140562182505,groupB
7.3808140562182505,groupB
7.3808140562182505,groupB
7.3808140562182505,groupB
8.654037756550114,groupB
8.654037756550114,groupB
8.654037756550114,groupB
8.654037756550114,groupB
8.654037756550114,groupB
8.654037756550114,groupB
8.654037756550114,groupA
8.654037756550114,groupB
8.654037756550114,groupB
8.654037756550114,groupB
8.367638459485903,groupB
8.367638459485903,groupA
8.367638459485903,groupB
8.367638459485903,groupB
8.367638459485903,groupA
8.367638459485903,groupB
8.367638459485903,groupB
8.367638459485903,groupB
8.026098950524347,groupB
8.026098950524347,groupB
8.026098950524347,groupB
8.026098950524347,groupB
8.026098950524347,groupB
8.026098950524347,groupB
8.026098950524347,groupB
8.026098950524347,groupA
7.799271410359544,groupA
7.799271410359544,groupB
7.799271410359544,groupB
7.799271410359544,groupB
7.799271410359544,groupA
7.256024425616636,groupB
9.4275697738326,groupB
9.4275697738326,groupB
9.04927901608956,groupB
9.04927901608956,groupA
9.04927901608956,groupB
9.04927901608956,groupA
9.04927901608956,groupB
2.882802823389563,groupA
2.882802823389563,groupA
5.090986964301458,groupB
8.098139549182363,groupA
8.098139549182363,groupB
8.098139549182363,groupB
8.098139549182363,groupA
8.098139549182363,groupB
8.098139549182363,groupB
8.098139549182363,groupB
8.098139549182363,groupB
8.098139549182363,groupA
8.098139549182363,groupB
8.098139549182363,groupA
5.240940793838908,groupB
9.668322355995326,groupB
9.668322355995326,groupB
9.668322355995326,groupA
9.668322355995326,groupB
9.668322355995326,groupA
9.668322355995326,groupA
9.459286806347473,groupA
9.459286806347473,groupA
9.459286806347473,groupB
9.459286806347473,groupA
2.51226343862627,groupB
2.51226343862627,groupA
2.51226343862627,groupA
2.51226343862627,groupB
2.51226343862627,groupB
2.51226343862627,groupA
8.412108495409212,groupB
8.412108495409212,groupB
8.412108495409212,groupB
8.412108495409212,groupB
8.412108495409212,groupA
8.412108495409212,groupA
8.412108495409212,groupB
2.0168995899666164,groupB
2.0168995899666164,groupB
2.0168995899666164,groupB
2.0168995899666164,groupB
2.0168995899666164,groupB
2.0168995899666164,groupA
2.0168995899666164,groupA
2.0168995899666164,groupB
2.0168995899666164,groupA
7.004689150555279,groupB
7.004689150555279,groupA
7.004689150555279,groupB
7.004689150555279,groupB
5.543299907817044,groupB
5.543299907817044,groupA
5.543299907817044,groupB
1.703531385447773,groupB
1.703531385447773,groupA
1.703531385447773,groupB
1.703531385447773,groupB
1.703531385447773,groupA
1.703531385447773,groupB
1.703531385447773,groupB
8.42278820389816,groupB
8.42278820389816,groupB
8.42278820389816,groupB
0.6692450723989629,groupA
0.6692450723989629,groupB
0.6692450723989629,groupB
0.6692450723989629,groupA
5.638768358135176,groupB
3.010206366873085,groupA
3.010206366873085,groupA
3.010206366873085,groupB
3.010206366873085,groupB
2.2436737674224485,groupB
2.2436737674224485,groupB
0.678977266975288,groupA
0.678977266975288,groupB
0.678977266975288,groupB
0.678977266975288,groupA
0.678977266975288,groupB
3.183579830450418,groupB
3.183579830450418,groupA
3.183579830450418,groupB
3.183579830450418,groupB
3.183579830450418,groupB
9.19062145252455,groupA
9.19062145252455,groupB
9.19062145252455,groupB
9.19062145252455,groupB
9.19062145252455,groupB
9.19062145252455,groupA
9.19062145252455,groupB
9.19062145252455,groupB
9.19062145252455,groupB
9.19062145252455,groupB
9.19062145252455,groupB
9.19062145252455,groupB
0.3392033767509428,groupA
0.3392033767509428,groupB
0.3392033767509428,groupA
0.3392033767509428,groupA
1.4884716440275159,groupA
1.2160069671824447,groupB
1.2160069671824447,groupA
1.2160069671824447,groupA
7.184320025370879,groupB
7.184320025370879,groupB
7.184320025370879,groupB
1.2417631468785062,groupB
1.2417631468785062,groupB
1.2417631468785062,groupA
5.177877607866501,groupB
5.177877607866501,groupA
5.177877607866501,groupB
9.050956764416766,groupB
3.839518378991472,groupB
3.839518378991472,groupA
3.839518378991472,groupB
3.839518378991472,groupB
3.839518378991472,groupB
3.839518378991472,groupB
3.839518378991472,groupA
3.839518378991472,groupA
9.981591565139086,groupA
2.323508384096815,groupA
2.323508384096815,groupA
2.323508384096815,groupA
2.323508384096815,groupA
2.323508384096815,groupB
2.323508384096815,groupB
2.323508384096815,groupB
2.323508384096815,groupA
2.323508384096815,groupB
2.323508384096815,groupA
5.189087546698866,groupB
5.189087546698866,groupA
5.189087546698866,groupB
5.189087546698866,groupB
3.8001623186547393,groupA
3.8001623186547393,groupA
3.8001623186547393,groupA
3.8001623186547393,groupB
3.8001623186547393,groupB
3.8001623186547393,groupB
3.8001623186547393,groupB
3.8001623186547393,groupB
3.8001623186547393,groupB
3.8001623186547393,groupA
3.8001623186547393,groupB
3.8001623186547393,groupB
3.8001623186547393,groupB
3.8001623186547393,groupB
3.8001623186547393,groupB
3.8001623186547393,groupB
3.8001623186547393,groupB
3.8001623186547393,groupB
3.8001623186547393,groupB
3.8001623186547393,groupB
9.06521286773059,groupB
9.06521286773059,groupB
9.06521286773059,groupB
9.06521286773059,groupB
9.06521286773059,groupB
9.06521286773059,groupB
9.06521286773059,groupB
9.06521286773059,groupB
9.06521286773059,groupB
9.06521286773059,groupB
9.06521286773059,groupB
8.941094753492445,groupB
8.941094753492445,groupB
8.941094753492445,groupA
8.941094753492445,groupA
8.941094753492445,groupA
4.746403717839181,groupA
4.746403717839181,groupA
4.746403717839181,groupB
4.746403717839181,groupA
4.746403717839181,groupB
4.746403717839181,groupB
4.746403717839181,groupB
4.746403717839181,groupB
6.416220417905062,groupB
6.416220417905062,groupA
6.416220417905062,groupB
6.416220417905062,groupB
6.416220417905062,groupB
2.348184673405144,groupB
2.348184673405144,groupB
2.348184673405144,groupA
2.348184673405144,groupB
2.348184673405144,groupA
2.6604083475962916,groupB
2.6604083475962916,groupB
2.6604083475962916,groupB
2.6604083475962916,groupB
2.6604083475962916,groupB
2.6604083475962916,groupB
2.6604083475962916,groupB
2.6604083475962916,groupB
2.6604083475962916,groupB
2.6604083475962916,groupA
3.6853466488299835,groupB
3.6853466488299835,groupA
1.6132215374480618,groupB
1.6132215374480618,groupB
1.6132215374480618,groupA
1.6132215374480618,groupB
1.6132215374480618,groupB
1.6132215374480618,groupB
1.6132215374480618,groupB
1.6132215374480618,groupB
1.6132215374480618,groupA
1.6132215374480618,groupA
1.6132215374480618,groupB
1.6132215374480618,groupA
1.6132215374480618,groupB
1.6132215374480618,groupB
1.6132215374480618,groupA
1.6132215374480618,groupA
1.6132215374480618,groupB
1.6132215374480618,groupB
1.6132215374480618,groupB
1.6132215374480618,groupB
1.6132215374480618,groupA
1.6132215374480618,groupA
1.6132215374480618,groupB
1.6132215374480618,groupA
1.6132215374480618,groupB
1.6132215374480618,groupB
1.6132215374480618,groupB
1.6132215374480618,groupB
1.6132215374480618,groupB
1.6132215374480618,groupB
1.6132215374480618,groupB
1.6132215374480618,groupA
1.6132215374480618,groupB
1.6132215374480618,groupA
1.6132215374480618,groupB
1.6132215374480618,groupB
1.6132215374480618,groupB
1.6132215374480618,groupB
1.6132215374480618,groupA
1.6132215374480618,groupB
1.6132215374480618,groupA
1.6132215374480618,groupA
1.6132215374480618,groupB
1.6132215374480618,groupB
1.6132215374480618,groupB
1.6132215374480618,groupA
1.6132215374480618,groupA
1.6132215374480618,groupB
1.6132215374480618,groupB
1.6132215374480618,groupA
1.6132215374480618,groupA
1.6132215374480618,groupB
1.6132215374480618,groupB
1.6132215374480618,groupB
1.6132215374480618,groupB
1.6132215374480618,groupB
1.6132215374480618,groupB
1.6132215374480618,groupA
1.6132215374480618,groupB
4.605365104381783,groupB
4.605365104381783,groupB
4.605365104381783,groupB
4.605365104381783,groupB
4.605365104381783,groupB
4.605365104381783,groupA
4.605365104381783,groupA
4.605365104381783,groupA
4.605365104381783,groupB
4.605365104381783,groupB
4.605365104381783,groupB
4.605365104381783,groupB
4.605365104381783,groupB
4.605365104381783,groupB
4.605365104381783,groupB
4.605365104381783,groupB
4.605365104381783,groupB
4.605365104381783,groupB
4.605365104381783,groupB
4.605365104381783,groupB
4.605365104381783,groupB
0.10684689981838913,groupA
0.10684689981838913,groupB
0.10684689981838913,groupB
0.10684689981838913,groupA
0.10684689981838913,groupB
0.10684689981838913,groupA
0.10684689981838913,groupB
0.10684689981838913,groupB
0.10684689981838913,groupB
0.10684689981838913,groupA
0.10684689981838913,groupB
1.2420690928553646,groupA
1.2420690928553646,groupB
1.2420690928553646,groupB
1.2420690928553646,groupB
1.2420690928553646,groupA
7.871800246952966,groupB
7.871800246952966,groupA
7.871800246952966,groupB
7.871800246952966,groupB
7.871800246952966,groupB
7.871800246952966,groupB
7.871800246952966,groupA
7.871800246952966,groupB
7.871800246952966,groupA
7.871800246952966,groupB
7.871800246952966,groupB
7.871800246952966,groupB
7.871800246952966,groupB
7.871800246952966,groupB
7.871800246952966,groupB
7.871800246952966,groupB
7.871800246952966,groupB
7.871800246952966,groupB
7.871800246952966,groupB
7.871800246952966,groupA
7.871800246952966,groupA
7.871800246952966,groupB
7.871800246952966,groupB
7.871800246952966,groupA
7.871800246952966,groupB
7.871800246952966,groupB
7.871800246952966,groupB
7.871800246952966,groupA
7.871800246952966,groupB
7.871800246952966,groupB
7.871800246952966,groupA
7.871800246952966,groupB
7.871800246952966,groupA
7.871800246952966,groupA
7.871800246952966,groupA
7.871800246952966,groupB
7.871800246952966,groupB
7.871800246952966,groupA
7.871800246952966,groupA
7.871800246952966,groupA
6.408112403157341,groupB
6.408112403157341,groupB
6.408112403157341,groupB
6.408112403157341,groupA
6.408112403157341,groupB
6.408112403157341,groupB
6.408112403157341,groupA
6.408112403157341,groupB
6.408112403157341,groupB
6.408112403157341,groupB
6.408112403157341,groupA
6.408112403157341,groupB
6.408112403157341,groupB
6.408112403157341,groupB
6.408112403157341,groupA
6.408112403157341,groupA
6.408112403157341,groupB
6.408112403157341,groupB
6.408112403157341,groupA
6.408112403157341,groupB
6.408112403157341,groupB
6.408112403157341,groupB
6.408112403157341,groupB
6.408112403157341,groupB
6.408112403157341,groupB
6.408112403157341,groupB
6.408112403157341,groupB
6.408112403157341,groupA
6.408112403157341,groupA
6.408112403157341,groupB
6.408112403157341,groupB
6.408112403157341,groupB
6.408112403157341,groupB
6.408112403157341,groupB
6.408112403157341,groupB
6.408112403157341,groupB
6.408112403157341,groupB
6.408112403157341,groupB
6.408112403157341,groupB
6.408112403157341,groupA
6.408112403157341,groupB
6.408112403157341,groupB
6.408112403157341,groupB
6.408112403157341,groupA
6.408112403157341,groupB
6.408112403157341,groupB
6.408112403157341,groupB
6.408112403157341,groupB
6.408112403157341,groupB
6.408112403157341,groupA
6.408112403157341,groupB
6.408112403157341,groupB
6.408112403157341,groupB
6.408112403157341,groupA
6.408112403157341,groupB
6.408112403157341,groupB
6.408112403157341,groupB
6.408112403157341,groupB
6.408112403157341,groupB
6.408112403157341,groupA
6.408112403157341,groupB
6.408112403157341,groupB
6.408112403157341,groupA
6.408112403157341,groupB
6.408112403157341,groupB
6.408112403157341,groupA
6.408112403157341,groupB
6.408112403157341,groupB
6.408112403157341,groupB
6.408112403157341,groupB
6.408112403157341,groupB
6.408112403157341,groupA
6.408112403157341,groupB
6.408112403157341,groupA
6.408112403157341,groupB
6.408112403157341,groupB
6.408112403157341,groupA
6.408112403157341,groupA
6.408112403157341,groupB
6.408112403157341,groupA
6.408112403157341,groupB
6.408112403157341,groupB
6.408112403157341,groupB
6.408112403157341,groupB
6.408112403157341,groupB
6.408112403157341,groupB
6.408112403157341,groupB
6.408112403157341,groupB
6.408112403157341,groupB
6.408112403157341,groupB
6.408112403157341,groupB
6.408112403157341,groupB
6.408112403157341,groupB
6.408112403157341,groupB
6.408112403157341,groupB
6.408112403157341,groupB
6.408112403157341,groupB
6.408112403157341,groupB
6.408112403157341,groupB
6.408112403157341,groupA
6.408112403157341,groupA
6.408112403157341,groupB
6.408112403157341,groupA
6.408112403157341,groupB
6.408112403157341,groupB
6.408112403157341,groupB
6.408112403157341,groupB
6.408112403157341,groupB
6.408112403157341,groupB
6.408112403157341,groupB
6.408112403157341,groupB
6.408112403157341,groupB
6.408112403157341,groupB
6.408112403157341,groupA
6.408112403157341,groupB
6.408112403157341,groupB
6.408112403157341,groupB
6.408112403157341,groupA
6.408112403157341,groupB
6.408112403157341,groupB
6.408112403157341,groupB
6.408112403157341,groupA
6.408112403157341,groupA
6.408112403157341,groupB
6.408112403157341,groupB
6.408112403157341,groupB
6.408112403157341,groupB
6.408112403157341,groupB
6.408112403157341,groupB
6.408112403157341,groupB
6.408112403157341,groupB
6.408112403157341,groupA
6.408112403157341,groupA
6.408112403157341,groupB
6.408112403157341,groupB
6.408112403157341,groupB
6.408112403157341,groupB
6.408112403157341,groupB
6.408112403157341,groupB
6.408112403157341,groupA
6.408112403157341,groupB
6.408112403157341,groupB
6.408112403157341,groupA
6.408112403157341,groupB
6.408112403157341,groupB
6.408112403157341,groupA
6.408112403157341,groupA
6.408112403157341,groupA
6.408112403157341,groupA
6.408112403157341,groupB
6.408112403157341,groupB
6.408112403157341,groupA
6.408112403157341,groupB
6.408112403157341,groupB
6.408112403157341,groupA
6.408112403157341,groupA
6.408112403157341,groupB
6.408112403157341,groupA
6.408112403157341,groupA
6.408112403157341,groupB
6.408112403157341,groupA
6.408112403157341,groupB
6.408112403157341,groupB
6.408112403157341,groupA
6.408112403157341,groupB
6.408112403157341,groupB
6.408112403157341,groupB
6.408112403157341,groupB
6.408112403157341,groupA
6.408112403157341,groupB
6.408112403157341,groupA
6.408112403157341,groupB
6.408112403157341,groupA
6.408112403157341,groupB
6.408112403157341,groupB
6.408112403157341,groupB
6.408112403157341,groupA
6.408112403157341,groupA
6.408112403157341,groupB
6.408112403157341,groupB
6.408112403157341,groupB
6.408112403157341,groupB
6.408112403157341,groupB
6.408112403157341,groupA
6.408112403157341,groupB
6.408112403157341,groupB
6.408112403157341,groupB
6.408112403157341,groupA
6.408112403157341,groupB
6.408112403157341,groupB
6.408112403157341,groupA
6.408112403157341,groupB
6.408112403157341,groupB
6.408112403157341,groupB
6.408112403157341,groupB
6.408112403157341,groupB
6.408112403157341,groupB
6.408112403157341,groupB
6.408112403157341,groupB
6.408112403157341,groupB
6.408112403157341,groupB
6.408112403157341,groupB
6.408112403157341,groupB
6.408112403157341,groupA
6.408112403157341,groupB
6.408112403157341,groupA
6.408112403157341,groupB
6.408112403157341,groupB
6.408112403157341,groupB
6.408112403157341,groupA
6.408112403157341,groupA
6.408112403157341,groupB
6.408112403157341,groupB
6.408112403157341,groupB
6.408112403157341,groupB
6.408112403157341,groupB
6.408112403157341,groupA
6.408112403157341,groupA
6.408112403157341,groupB
6.408112403157341,groupB
6.408112403157341,groupA
6.408112403157341,groupB
6.408112403157341,groupB
6.408112403157341,groupB
6.408112403157341,groupB
6.408112403157341,groupB
6.408112403157341,groupB
6.408112403157341,groupB
6.408112403157341,groupA
6.408112403157341,groupA
6.408112403157341,groupA
6.408112403157341,groupB
6.408112403157341,groupB
6.408112403157341,groupB
6.408112403157341,groupB
6.408112403157341,groupB
6.408112403157341,groupA
6.408112403157341,groupB
6.408112403157341,groupA
6.408112403157341,groupB
6.408112403157341,groupB
6.408112403157341,groupA
6.408112403157341,groupA
6.408112403157341,groupA
6.408112403157341,groupB
6.408112403157341,groupB
6.408112403157341,groupB
6.408112403157341,groupA
6.408112403157341,groupA
6.408112403157341,groupA
6.408112403157341,groupA
6.408112403157341,groupA
6.408112403157341,groupA
6.408112403157341,groupA
6.408112403157341,groupB
6.408112403157341,groupA
6.408112403157341,groupA
6.408112403157341,groupB
6.408112403157341,groupB
6.408112403157341,groupB
6.408112403157341,groupB
6.408112403157341,groupB
6.408112403157341,groupA
6.408112403157341,groupB
6.408112403157341,groupA
6.408112403157341,groupB
6.408112403157341,groupA
6.408112403157341,groupB
6.408112403157341,groupA
6.408112403157341,groupA
6.408112403157341,groupB
6.408112403157341,groupB
6.408112403157341,groupB
6.408112403157341,groupA
6.408112403157341,groupB
6.408112403157341,groupA
6.408112403157341,groupB
6.408112403157341,groupB
6.408112403157341,groupB
6.408112403157341,groupB
6.408112403157341,groupB
6.408112403157341,groupB
6.408112403157341,groupB
6.408112403157341,groupB
6.408112403157341,groupA
6.408112403157341,groupB
6.408112403157341,groupA
6.408112403157341,groupB
6.408112403157341,groupB
6.408112403157341,groupB
6.408112403157341,groupB
6.408112403157341,groupB
6.408112403157341,groupB
6.408112403157341,groupA
6.408112403157341,groupB
6.408112403157341,groupA
6.408112403157341,groupB
6.408112403157341,groupA
6.408112403157341,groupA
6.408112403157341,groupB
6.408112403157341,groupA
6.408112403157341,groupA
6.408112403157341,groupB
6.408112403157341,groupB
6.408112403157341,groupB
6.408112403157341,groupB
6.408112403157341,groupA
6.408112403157341,groupB
6.408112403157341,groupB
6.408112403157341,groupA
6.408112403157341,groupA
6.408112403157341,groupA
6.408112403157341,groupB
6.408112403157341,groupB
6.408112403157341,groupB
6.408112403157341,groupB
6.408112403157341,groupB
6.408112403157341,groupA
6.408112403157341,groupA
6.408112403157341,groupA
6.408112403157341,groupB
6.408112403157341,groupA
6.408112403157341,groupB
6.408112403157341,groupB
6.408112403157341,groupB
6.408112403157341,groupA
6.408112403157341,groupB
6.408112403157341,groupB
6.408112403157341,groupA
6.408112403157341,groupB
6.408112403157341,groupB
6.408112403157341,groupB
6.408112403157341,groupA
6.408112403157341,groupB
6.408112403157341,groupB
6.408112403157341,groupB
6.408112403157341,groupB
6.408112403157341,groupB
6.408112403157341,groupA
6.408112403157341,groupB
6.408112403157341,groupB
6.408112403157341,groupB
6.408112403157341,groupB
6.408112403157341,groupB
6.408112403157341,groupB
6.408112403157341,groupA
6.408112403157341,groupB
6.408112403157341,groupB
6.408112403157341,groupB
6.408112403157341,groupB
6.408112403157341,groupB
6.408112403157341,groupB
6.408112403157341,groupB
6.408112403157341,groupB
6.408112403157341,groupA
6.408112403157341,groupB
6.408112403157341,groupA
6.408112403157341,groupA
6.408112403157341,groupB
6.408112403157341,groupA
6.408112403157341,groupB
6.408112403157341,groupA
6.408112403157341,groupA
6.408112403157341,groupA
6.408112403157341,groupB
6.408112403157341,groupA
6.408112403157341,groupA
6.408112403157341,groupA
6.408112403157341,groupA
6.408112403157341,groupA
6.408112403157341,groupB
6.408112403157341,groupA
6.408112403157341,groupA
6.408112403157341,groupA
6.408112403157341,groupB
6.408112403157341,groupB
6.408112403157341,groupB
6.408112403157341,groupB
6.408112403157341,groupA
6.408112403157341,groupB
6.408112403157341,groupB
6.408112403157341,groupA
6.408112403157341,groupB
6.408112403157341,groupB
6.408112403157341,groupB
6.408112403157341,groupB
6.408112403157341,groupB
6.408112403157341,groupA
6.408112403157341,groupB
6.408112403157341,groupB
6.408112403157341,groupA
6.408112403157341,groupA
6.408112403157341,groupB
6.408112403157341,groupA
6.408112403157341,groupB
6.408112403157341,groupB
6.408112403157341,groupB
6.408112403157341,groupA
6.408112403157341,groupA
6.408112403157341,groupA
6.408112403157341,groupB
6.408112403157341,groupB
6.408112403157341,groupB
6.408112403157341,groupB
6.408112403157341,groupB
6.408112403157341,groupB
6.408112403157341,groupA
6.408112403157341,groupB
6.408112403157341,groupB
6.408112403157341,groupB
6.408112403157341,groupB
6.408112403157341,groupB
6.408112403157341,groupB
6.408112403157341,groupB
6.408112403157341,groupB
6.408112403157341,groupB
6.408112403157341,groupB
6.408112403157341,groupB
6.408112403157341,groupB
6.408112403157341,groupA
6.408112403157341,groupB
6.408112403157341,groupB
6.408112403157341,groupB
6.408112403157341,groupB
6.408112403157341,groupA
6.408112403157341,groupB
6.408112403157341,groupB
6.408112403157341,groupB
6.408112403157341,groupA
6.408112403157341,groupA
6.408112403157341,groupA
6.408112403157341,groupB
6.408112403157341,groupB
6.408112403157341,groupB
6.408112403157341,groupB
6.408112403157341,groupB
6.408112403157341,groupB
6.408112403157341,groupA
6.408112403157341,groupB
6.408112403157341,groupB
6.408112403157341,groupB
6.408112403157341,groupA
6.408112403157341,groupB
6.408112403157341,groupA
6.408112403157341,groupB
6.408112403157341,groupA
6.408112403157341,groupA
6.408112403157341,groupA
6.408112403157341,groupB
6.408112403157341,groupB
6.408112403157341,groupB
6.408112403157341,groupB
6.408112403157341,groupB
6.408112403157341,groupB
6.408112403157341,groupA
6.408112403157341,groupA
6.408112403157341,groupA
6.408112403157341,groupA
6.408112403157341,groupB
6.408112403157341,groupB
6.408112403157341,groupB
6.408112403157341,groupB
6.408112403157341,groupA
6.408112403157341,groupB
6.408112403157341,groupB
6.408112403157341,groupB
6.408112403157341,groupB
6.408112403157341,groupA
6.408112403157341,groupB
6.408112403157341,groupB
6.408112403157341,groupA
6.408112403157341,groupB
6.408112403157341,groupA
6.408112403157341,groupB
6.408112403157341,groupB
6.408112403157341,groupB
6.408112403157341,groupB
6.408112403157341,groupB
6.408112403157341,groupA
6.408112403157341,groupA
6.408112403157341,groupB
6.408112403157341,groupB
6.408112403157341,groupA
6.408112403157341,groupB
6.408112403157341,groupB
6.408112403157341,groupB
6.408112403157341,groupA
6.408112403157341,groupB
6.408112403157341,groupA
6.408112403157341,groupB
6.408112403157341,groupB
6.408112403157341,groupB
6.408112403157341,groupB
6.408112403157341,groupA
6.408112403157341,groupB
6.408112403157341,groupB
6.408112403157341,groupA
6.408112403157341,groupB
6.408112403157341,groupA
6.408112403157341,groupB
6.408112403157341,groupB
6.408112403157341,groupA
6.408112403157341,groupA
6.408112403157341,groupB
6.408112403157341,groupA
6.408112403157341,groupB
6.408112403157341,groupA
6.408112403157341,groupB
6.408112403157341,groupA
6.408112403157341,groupB
6.408112403157341,groupA
6.408112403157341,groupB
6.408112403157341,groupA
6.408112403157341,groupB
6.408112403157341,groupA
6.408112403157341,groupB
6.408112403157341,groupB
6.408112403157341,groupA
6.408112403157341,groupB
6.408112403157341,groupB
6.408112403157341,groupB
6.408112403157341,groupA
6.408112403157341,groupB
6.408112403157341,groupB
6.408112403157341,groupB
6.408112403157341,groupB
6.408112403157341,groupB
6.408112403157341,groupB
6.408112403157341,groupA
6.408112403157341,groupB
6.408112403157341,groupB
6.408112403157341,groupB
6.408112403157341,groupB
6.408112403157341,groupB
6.408112403157341,groupA
6.408112403157341,groupB
6.408112403157341,groupB
6.408112403157341,groupB
6.408112403157341,groupB
6.408112403157341,groupB
6.408112403157341,groupB
6.408112403157341,groupB
6.408112403157341,groupB
6.408112403157341,groupA
6.408112403157341,groupB
6.408112403157341,groupB
6.408112403157341,groupB
6.408112403157341,groupB
6.408112403157341,groupB
6.408112403157341,groupB
6.408112403157341,groupA
6.408112403157341,groupB
6.408112403157341,groupB
6.408112403157341,groupB
6.408112403157341,groupA
6.408112403157341,groupB
6.408112403157341,groupA
6.408112403157341,groupB
6.408112403157341,groupB
6.408112403157341,groupA
6.408112403157341,groupB
6.408112403157341,groupB
6.408112403157341,groupA
6.408112403157341,groupA
6.408112403157341,groupA
6.408112403157341,groupA
6.408112403157341,groupA
6.408112403157341,groupA
6.408112403157341,groupB
6.408112403157341,groupB
6.408112403157341,groupA
6.408112403157341,groupB
6.408112403157341,groupB
6.408112403157341,groupB
6.408112403157341,groupB
6.408112403157341,groupB
6.408112403157341,groupA
6.408112403157341,groupB
6.408112403157341,groupA
6.408112403157341,groupA
6.408112403157341,groupB
6.408112403157341,groupB
6.408112403157341,groupA
6.408112403157341,groupB
6.408112403157341,groupB
6.408112403157341,groupA
6.408112403157341,groupB
6.408112403157341,groupB
6.408112403157341,groupB
6.408112403157341,groupB
6.408112403157341,groupB
6.408112403157341,groupB
6.408112403157341,groupB
6.408112403157341,groupB
6.408112403157341,groupB
6.408112403157341,groupB
6.408112403157341,groupB
6.408112403157341,groupA
6.408112403157341,groupA
6.408112403157341,groupB
6.408112403157341,groupA
6.408112403157341,groupB
6.408112403157341,groupB
6.408112403157341,groupA
6.408112403157341,groupB
6.408112403157341,groupA
6.408112403157341,groupB
6.408112403157341,groupB
6.408112403157341,groupB
6.408112403157341,groupB
6.408112403157341,groupB
6.408112403157341,groupB
6.408112403157341,groupB
6.408112403157341,groupB
6.408112403157341,groupB
6.408112403157341,groupB
6.408112403157341,groupA
6.408112403157341,groupB
6.408112403157341,groupA
6.408112403157341,groupA
6.408112403157341,groupB
6.408112403157341,groupB
6.408112403157341,groupB
6.408112403157341,groupB
6.408112403157341,groupB
6.408112403157341,groupB
6.408112403157341,groupB
6.408112403157341,groupB
6.408112403157341,groupB
6.408112403157341,groupB
6.408112403157341,groupA
6.408112403157341,groupB
6.408112403157341,groupB
6.408112403157341,groupA
6.408112403157341,groupB
6.408112403157341,groupB
6.408112403157341,groupB
6.408112403157341,groupA
6.408112403157341,groupB
6.408112403157341,groupA
6.408112403157341,groupA
6.408112403157341,groupB
6.408112403157341,groupB
6.408112403157341,groupA
6.408112403157341,groupA
6.408112403157341,groupA
6.408112403157341,groupB
6.408112403157341,groupA
6.408112403157341,groupB
6.408112403157341,groupB
6.408112403157341,groupB
6.408112403157341,groupB
6.408112403157341,groupB
6.408112403157341,groupB
6.408112403157341,groupB
6.408112403157341,groupA
6.408112403157341,groupB
6.408112403157341,groupB
6.408112403157341,groupB
6.408112403157341,groupB
6.408112403157341,groupB
6.408112403157341,groupB
6.408112403157341,groupB
6.408112403157341,groupB
6.408112403157341,groupA
6.408112403157341,groupA
6.408112403157341,groupA
6.408112403157341,groupB
6.408112403157341,groupB
6.408112403157341,groupB
6.408112403157341,groupA
6.408112403157341,groupA
6.408112403157341,groupB
6.408112403157341,groupB
6.408112403157341,groupB
6.408112403157341,groupB
6.408112403157341,groupB
6.408112403157341,groupB
6.408112403157341,groupB
6.408112403157341,groupA
6.408112403157341,groupA
6.408112403157341,groupA
6.408112403157341,groupB
6.408112403157341,groupB
6.408112403157341,groupB
6.408112403157341,groupB
6.408112403157341,groupB
6.408112403157341,groupB
6.408112403157341,groupB
6.408112403157341,groupB
6.408112403157341,groupB
6.408112403157341,groupA
6.408112403157341,groupA
6.408112403157341,groupA
6.408112403157341,groupB
6.408112403157341,groupB
6.408112403157341,groupA
6.408112403157341,groupB
6.408112403157341,groupA
6.408112403157341,groupB
6.408112403157341,groupA
6.408112403157341,groupB
6.408112403157341,groupB
6.408112403157341,groupB
6.408112403157341,groupA
6.408112403157341,groupB
6.408112403157341,groupA
6.408112403157341,groupA
6.408112403157341,groupA
6.408112403157341,groupA
6.408112403157341,groupB
6.408112403157341,groupB
6.408112403157341,groupB
6.408112403157341,groupA
6.408112403157341,groupA
6.408112403157341,groupB
6.408112403157341,groupB
6.408112403157341,groupB
6.408112403157341,groupA
6.408112403157341,groupB
6.408112403157341,groupB
6.408112403157341,groupB
6.408112403157341,groupA
6.408112403157341,groupB
6.408112403157341,groupB
6.408112403157341,groupB
6.408112403157341,groupB
6.408112403157341,groupA
6.408112403157341,groupB
6.408112403157341,groupA
6.408112403157341,groupB
6.408112403157341,groupB
6.408112403157341,groupB
6.408112403157341,groupB
6.408112403157341,groupA
6.408112403157341,groupA
6.408112403157341,groupB
6.408112403157341,groupA
6.408112403157341,groupA
6.408112403157341,groupB
6.408112403157341,groupB
6.408112403157341,groupA
6.408112403157341,groupB
6.408112403157341,groupA
6.408112403157341,groupA
6.408112403157341,groupA
6.408112403157341,groupB
6.408112403157341,groupB
6.408112403157341,groupA
6.408112403157341,groupA
6.408112403157341,groupB
6.408112403157341,groupB
6.408112403157341,groupA
6.408112403157341,groupA
6.408112403157341,groupB
6.408112403157341,groupA
6.408112403157341,groupB
6.408112403157341,groupA
6.408112403157341,groupA
6.408112403157341,groupB
6.408112403157341,groupB
6.408112403157341,groupA
6.408112403157341,groupB
6.408112403157341,groupB
6.408112403157341,groupA
6.408112403157341,groupB
6.408112403157341,groupA
6.408112403157341,groupB
6.408112403157341,groupB
6.408112403157341,groupB
6.408112403157341,groupB
6.408112403157341,groupA
6.408112403157341,groupA
6.408112403157341,groupB
6.408112403157341,groupB
6.408112403157341,groupB
6.408112403157341,groupB
6.408112403157341,groupB
6.408112403157341,groupB
6.408112403157341,groupB
6.408112403157341,groupB
6.408112403157341,groupA
6.408112403157341,groupB
6.408112403157341,groupB
6.408112403157341,groupB
6.408112403157341,groupB
6.408112403157341,groupB
6.408112403157341,groupB
6.408112403157341,groupB
6.408112403157341,groupB
6.408112403157341,groupB
6.408112403157341,groupA
6.408112403157341,groupB
6.408112403157341,groupA
6.408112403157341,groupB
6.408112403157341,groupB
6.408112403157341,groupB
6.408112403157341,groupB
6.408112403157341,groupB
6.408112403157341,groupB
6.408112403157341,groupA
6.408112403157341,groupA
6.408112403157341,groupB
6.408112403157341,groupA
6.408112403157341,groupA
6.408112403157341,groupA
6.408112403157341,groupA
6.408112403157341,groupA
6.408112403157341,groupB
6.408112403157341,groupB
6.408112403157341,groupB
6.408112403157341,groupB
6.408112403157341,groupA
6.408112403157341,groupA
6.408112403157341,groupB
6.408112403157341,groupA
6.408112403157341,groupA
6.408112403157341,groupB
6.408112403157341,groupA
6.408112403157341,groupA
6.408112403157341,groupB
6.408112403157341,groupA
6.408112403157341,groupB
6.408112403157341,groupB
6.408112403157341,groupB
6.408112403157341,groupB
6.408112403157341,groupA
6.408112403157341,groupB
6.408112403157341,groupB
6.408112403157341,groupB
6.408112403157341,groupB
6.408112403157341,groupA
6.408112403157341,groupB
6.408112403157341,groupB
6.408112403157341,groupB
6.408112403157341,groupA
6.408112403157341,groupA
6.408112403157341,groupA
6.408112403157341,groupB
6.408112403157341,groupB
6.408112403157341,groupB
6.408112403157341,groupB
6.408112403157341,groupA
6.408112403157341,groupB
6.408112403157341,groupB
6.408112403157341,groupB
6.408112403157341,groupB
6.408112403157341,groupB
6.408112403157341,groupB
6.408112403157341,groupB
6.408112403157341,groupB
6.408112403157341,groupA
6.408112403157341,groupB
6.408112403157341,groupA
6.408112403157341,groupB
6.408112403157341,groupB
6.408112403157341,groupB
6.408112403157341,groupA
6.408112403157341,groupA
6.408112403157341,groupB
6.408112403157341,groupB
6.408112403157341,groupB
6.408112403157341,groupB
6.408112403157341,groupB
6.408112403157341,groupB
6.408112403157341,groupA
6.408112403157341,groupB
6.408112403157341,groupA
6.408112403157341,groupB
6.408112403157341,groupB
6.408112403157341,groupB
6.408112403157341,groupA
6.408112403157341,groupB
6.408112403157341,groupA
6.408112403157341,groupB
6.408112403157341,groupB
6.408112403157341,groupB
6.408112403157341,groupA
6.408112403157341,groupB
6.408112403157341,groupA
6.408112403157341,groupB
6.408112403157341,groupB
6.408112403157341,groupA
6.408112403157341,groupA
6.408112403157341,groupA
6.408112403157341,groupB
6.408112403157341,groupA
6.408112403157341,groupA
6.408112403157341,groupB
6.408112403157341,groupB
6.408112403157341,groupB
6.408112403157341,groupA
6.408112403157341,groupB
6.408112403157341,groupB
6.408112403157341,groupB
6.408112403157341,groupB
6.408112403157341,groupB
6.408112403157341,groupA
6.408112403157341,groupB
6.408112403157341,groupA
6.408112403157341,groupA
6.408112403157341,groupB
6.408112403157341,groupA
6.408112403157341,groupA
6.408112403157341,groupB
6.408112403157341,groupA
6.408112403157341,groupB
6.408112403157341,groupA
6.408112403157341,groupA
6.408112403157341,groupB
6.408112403157341,groupB
6.408112403157341,groupB
6.408112403157341,groupB
6.408112403157341,groupA
6.408112403157341,groupB
6.408112403157341,groupB
6.408112403157341,groupB
6.408112403157341,groupB
6.408112403157341,groupB
6.408112403157341,groupA
6.408112403157341,groupB
6.408112403157341,groupB
6.408112403157341,groupA
6.408112403157341,groupB
6.408112403157341,groupB
6.408112403157341,groupB
6.408112403157341,groupB
6.408112403157341,groupB
6.408112403157341,groupB
6.408112403157341,groupB
6.408112403157341,groupB
6.408112403157341,groupA
6.408112403157341,groupB
6.408112403157341,groupB
6.408112403157341,groupA
6.408112403157341,groupB
6.408112403157341,groupA
6.408112403157341,groupB
6.408112403157341,groupA
6.408112403157341,groupB
6.408112403157341,groupB
6.408112403157341,groupB
6.408112403157341,groupB
6.408112403157341,groupB
6.408112403157341,groupB
6.408112403157341,groupA
6.408112403157341,groupA
6.408112403157341,groupB
6.408112403157341,groupB
6.408112403157341,groupB
6.408112403157341,groupB
6.408112403157341,groupB
6.408112403157341,groupB
6.408112403157341,groupB
6.408112403157341,groupB
6.408112403157341,groupB
6.408112403157341,groupB
6.408112403157341,groupB
6.408112403157341,groupB
6.408112403157341,groupB
6.408112403157341,groupA
6.408112403157341,groupA
6.408112403157341,groupB
6.408112403157341,groupB
6.408112403157341,groupA
6.408112403157341,groupA
6.408112403157341,groupB
6.408112403157341,groupB
6.408112403157341,groupA
6.408112403157341,groupB
6.408112403157341,groupA
6.408112403157341,groupB
6.408112403157341,groupB
6.408112403157341,groupA
6.408112403157341,groupB
6.408112403157341,groupB
6.408112403157341,groupA
6.408112403157341,groupA
6.408112403157341,groupB
6.408112403157341,groupA
6.408112403157341,groupB
6.408112403157341,groupB
6.408112403157341,groupB
6.408112403157341,groupA
6.408112403157341,groupB
6.408112403157341,groupB
6.408112403157341,groupB
6.408112403157341,groupA
6.408112403157341,groupA
6.408112403157341,groupA
6.408112403157341,groupA
6.408112403157341,groupA
6.408112403157341,groupB
6.408112403157341,groupB
6.408112403157341,groupB
6.408112403157341,groupB
6.408112403157341,groupB
6.408112403157341,groupB
6.408112403157341,groupB
6.408112403157341,groupB
6.408112403157341,groupB
6.408112403157341,groupA
6.408112403157341,groupB
6.408112403157341,groupA
6.408112403157341,groupA
6.408112403157341,groupB
6.408112403157341,groupB
6.408112403157341,groupA
6.408112403157341,groupB
6.408112403157341,groupA
6.408112403157341,groupA
6.408112403157341,groupB
6.408112403157341,groupB
6.408112403157341,groupB
6.408112403157341,groupA
6.408112403157341,groupB
6.408112403157341,groupB
6.408112403157341,groupB
6.408112403157341,groupA
6.408112403157341,groupB
6.408112403157341,groupB
6.408112403157341,groupB
6.408112403157341,groupA
6.408112403157341,groupA
6.408112403157341,groupB
6.408112403157341,groupA
6.408112403157341,groupA
6.408112403157341,groupB
6.408112403157341,groupB
6.408112403157341,groupB
6.408112403157341,groupB
6.408112403157341,groupA
6.408112403157341,groupB
6.408112403157341,groupA
6.408112403157341,groupA
6.408112403157341,groupB
6.408112403157341,groupA
6.408112403157341,groupB
6.408112403157341,groupA
6.408112403157341,groupB
6.408112403157341,groupB
6.408112403157341,groupA
6.408112403157341,groupB
6.408112403157341,groupB
6.408112403157341,groupA
6.408112403157341,groupB
6.408112403157341,groupB
6.408112403157341,groupA
6.408112403157341,groupA
6.408112403157341,groupA
6.408112403157341,groupB
6.408112403157341,groupB
6.408112403157341,groupB
6.408112403157341,groupA
6.408112403157341,groupB
6.408112403157341,groupA
6.408112403157341,groupA
6.408112403157341,groupA
6.408112403157341,groupB
6.408112403157341,groupB
6.408112403157341,groupA
6.408112403157341,groupB
6.408112403157341,groupB
6.408112403157341,groupA
6.408112403157341,groupB
6.408112403157341,groupA
6.408112403157341,groupA
6.408112403157341,groupB
6.408112403157341,groupB
6.408112403157341,groupB
6.408112403157341,groupB
6.408112403157341,groupA
6.408112403157341,groupB
6.408112403157341,groupB
6.408112403157341,groupA
6.408112403157341,groupB
6.408112403157341,groupA
6.408112403157341,groupB
6.408112403157341,groupB
6.408112403157341,groupA
6.408112403157341,groupB
6.408112403157341,groupB
6.408112403157341,groupB
6.408112403157341,groupB
6.408112403157341,groupA
6.408112403157341,groupB
6.408112403157341,groupA
6.408112403157341,groupA
6.408112403157341,groupA
6.408112403157341,groupA
6.408112403157341,groupB
6.408112403157341,groupB
6.408112403157341,groupB
6.408112403157341,groupB
6.408112403157341,groupB
6.408112403157341,groupB
6.408112403157341,groupA
6.408112403157341,groupA
6.408112403157341,groupB
6.408112403157341,groupA
6.408112403157341,groupB
6.408112403157341,groupB
6.408112403157341,groupB
6.408112403157341,groupA
6.408112403157341,groupA
6.408112403157341,groupA
6.408112403157341,groupB
6.408112403157341,groupB
6.408112403157341,groupA
6.408112403157341,groupB
6.408112403157341,groupB
6.408112403157341,groupB
6.408112403157341,groupB
6.408112403157341,groupB
6.408112403157341,groupB
6.408112403157341,groupB
6.408112403157341,groupB
6.408112403157341,groupB
6.408112403157341,groupB
6.408112403157341,groupA
6.408112403157341,groupA
6.408112403157341,groupA
6.408112403157341,groupA
6.408112403157341,groupB
6.408112403157341,groupB
6.408112403157341,groupB
6.408112403157341,groupA
6.408112403157341,groupA
6.408112403157341,groupB
6.408112403157341,groupB
6.408112403157341,groupB
6.408112403157341,groupA
6.408112403157341,groupB
6.408112403157341,groupB
6.408112403157341,groupB
6.408112403157341,groupA
6.408112403157341,groupB
6.408112403157341,groupB
6.408112403157341,groupB
6.408112403157341,groupA
6.408112403157341,groupB
6.408112403157341,groupA
6.408112403157341,groupB
6.408112403157341,groupA
6.408112403157341,groupB
6.408112403157341,groupB
6.408112403157341,groupB
6.408112403157341,groupB
6.408112403157341,groupB
6.408112403157341,groupB
6.408112403157341,groupB
6.408112403157341,groupB
6.408112403157341,groupB
6.408112403157341,groupB
6.408112403157341,groupB
6.408112403157341,groupB
6.408112403157341,groupB
6.408112403157341,groupB
6.408112403157341,groupB
6.408112403157341,groupA
6.408112403157341,groupB
6.408112403157341,groupB
6.408112403157341,groupB
6.408112403157341,groupA
6.408112403157341,groupB
6.408112403157341,groupB
6.408112403157341,groupB
6.408112403157341,groupB
6.408112403157341,groupB
6.408112403157341,groupB
6.408112403157341,groupA
6.408112403157341,groupB
6.408112403157341,groupA
6.408112403157341,groupB
6.408112403157341,groupB
6.408112403157341,groupA
6.408112403157341,groupB
6.408112403157341,groupB
6.408112403157341,groupB
6.408112403157341,groupB
6.408112403157341,groupB
6.408112403157341,groupA
6.408112403157341,groupB
6.408112403157341,groupB
6.408112403157341,groupB
6.408112403157341,groupB
6.408112403157341,groupA
6.408112403157341,groupB
6.408112403157341,groupB
6.408112403157341,groupA
6.408112403157341,groupA
6.408112403157341,groupB
6.408112403157341,groupB
6.408112403157341,groupB
6.408112403157341,groupA
6.408112403157341,groupA
6.408112403157341,groupB
6.408112403157341,groupB
6.408112403157341,groupB
6.408112403157341,groupB
6.408112403157341,groupB
6.408112403157341,groupB
6.408112403157341,groupB
6.408112403157341,groupB
6.408112403157341,groupA
6.408112403157341,groupB
6.408112403157341,groupB
6.408112403157341,groupB
6.408112403157341,groupB
6.408112403157341,groupA
6.408112403157341,groupB
6.408112403157341,groupA
6.408112403157341,groupB
6.408112403157341,groupB
6.408112403157341,groupA
6.408112403157341,groupB
6.408112403157341,groupB
6.408112403157341,groupA
6.408112403157341,groupA
6.408112403157341,groupA
6.408112403157341,groupB
6.408112403157341,groupB
6.408112403157341,groupB
6.408112403157341,groupA
6.408112403157341,groupA
6.408112403157341,groupB
6.408112403157341,groupB
6.408112403157341,groupB
6.408112403157341,groupA
6.408112403157341,groupA
6.408112403157341,groupB
6.408112403157341,groupA
6.408112403157341,groupB
6.408112403157341,groupA
6.408112403157341,groupA
6.408112403157341,groupB
6.408112403157341,groupB
6.408112403157341,groupA
6.408112403157341,groupB
6.408112403157341,groupA
6.408112403157341,groupB
6.408112403157341,groupB
6.408112403157341,groupB
6.408112403157341,groupB
6.408112403157341,groupA
6.408112403157341,groupB
6.408112403157341,groupB
6.408112403157341,groupA
6.408112403157341,groupB
6.408112403157341,groupB
6.408112403157341,groupB
6.408112403157341,groupB
6.408112403157341,groupB
6.408112403157341,groupA
6.408112403157341,groupB
6.408112403157341,groupB
6.408112403157341,groupA
6.408112403157341,groupB
6.408112403157341,groupB
6.408112403157341,groupA
6.408112403157341,groupA
6.408112403157341,groupB
6.408112403157341,groupA
6.408112403157341,groupA
6.408112403157341,groupB
6.408112403157341,groupA
6.408112403157341,groupA
6.408112403157341,groupA
6.408112403157341,groupA
6.408112403157341,groupB
6.408112403157341,groupA
6.408112403157341,groupB
6.408112403157341,groupA
6.408112403157341,groupB
6.408112403157341,groupB
6.408112403157341,groupA
6.408112403157341,groupB
6.408112403157341,groupB
6.408112403157341,groupB
6.408112403157341,groupB
6.408112403157341,groupB
6.408112403157341,groupA
6.408112403157341,groupB
6.408112403157341,groupB
6.408112403157341,groupB
6.408112403157341,groupB
6.408112403157341,groupB
6.408112403157341,groupA
6.408112403157341,groupA
6.408112403157341,groupB
6.408112403157341,groupB
6.408112403157341,groupB
6.408112403157341,groupB
6.408112403157341,groupB
6.408112403157341,groupA
6.408112403157341,groupB
6.408112403157341,groupB
6.408112403157341,groupB
6.408112403157341,groupA
6.408112403157341,groupB
6.408112403157341,groupB
6.408112403157341,groupA
6.408112403157341,groupB
6.408112403157341,groupB
6.408112403157341,groupB
6.408112403157341,groupA
6.408112403157341,groupB
6.408112403157341,groupB
6.408112403157341,groupB
6.408112403157341,groupB
6.408112403157341,groupA
6.408112403157341,groupB
6.408112403157341,groupB
6.408112403157341,groupA
6.408112403157341,groupA
6.408112403157341,groupA
6.408112403157341,groupB
6.408112403157341,groupB
6.408112403157341,groupB
6.408112403157341,groupB
6.408112403157341,groupB
6.408112403157341,groupB
6.408112403157341,groupB
6.408112403157341,groupA
6.408112403157341,groupA
6.408112403157341,groupB
6.408112403157341,groupA
6.408112403157341,groupB
6.408112403157341,groupB
6.408112403157341,groupB
6.408112403157341,groupA
6.408112403157341,groupB
6.408112403157341,groupB
6.408112403157341,groupA
6.408112403157341,groupA
6.408112403157341,groupA
6.408112403157341,groupA
6.408112403157341,groupA
6.408112403157341,groupB
6.408112403157341,groupB
6.408112403157341,groupB
6.408112403157341,groupA
6.408112403157341,groupA
6.408112403157341,groupB
6.408112403157341,groupB
6.408112403157341,groupB
6.408112403157341,groupB
6.408112403157341,groupA
6.408112403157341,groupB
6.408112403157341,groupA
6.408112403157341,groupB
6.408112403157341,groupB
6.408112403157341,groupB
6.408112403157341,groupB
6.408112403157341,groupB
6.408112403157341,groupB
6.408112403157341,groupB
6.408112403157341,groupB
6.408112403157341,groupB
6.408112403157341,groupB
6.408112403157341,groupB
6.408112403157341,groupB
6.408112403157341,groupB
6.408112403157341,groupB
6.408112403157341,groupB
6.408112403157341,groupA
6.408112403157341,groupA
6.408112403157341,groupB
6.408112403157341,groupB
6.408112403157341,groupA
6.408112403157341,groupB
6.408112403157341,groupB
6.408112403157341,groupA
6.408112403157341,groupB
6.408112403157341,groupB
6.408112403157341,groupA
6.408112403157341,groupB
6.408112403157341,groupA
6.408112403157341,groupB
6.408112403157341,groupA
6.408112403157341,groupB
6.408112403157341,groupB
6.408112403157341,groupA
6.408112403157341,groupB
6.408112403157341,groupB
6.408112403157341,groupB
6.408112403157341,groupA
6.408112403157341,groupA
6.408112403157341,groupB
6.408112403157341,groupB
6.408112403157341,groupB
6.408112403157341,groupB
6.408112403157341,groupA
6.408112403157341,groupA
6.408112403157341,groupB
6.408112403157341,groupB
6.408112403157341,groupB
6.408112403157341,groupB
6.408112403157341,groupA
6.408112403157341,groupA
6.408112403157341,groupB
6.408112403157341,groupB
6.408112403157341,groupA
6.408112403157341,groupB
6.408112403157341,groupB
6.408112403157341,groupB
6.408112403157341,groupB
6.408112403157341,groupB
6.408112403157341,groupB
6.408112403157341,groupB
6.408112403157341,groupB
6.408112403157341,groupB
6.408112403157341,groupA
6.408112403157341,groupB
6.408112403157341,groupB
6.408112403157341,groupB
6.408112403157341,groupB
6.408112403157341,groupB
6.408112403157341,groupA
6.408112403157341,groupB
6.408112403157341,groupB
6.408112403157341,groupB
6.408112403157341,groupB
6.408112403157341,groupA
6.408112403157341,groupA
6.408112403157341,groupA
6.408112403157341,groupB
6.408112403157341,groupB
6.408112403157341,groupB
6.408112403157341,groupB
6.408112403157341,groupB
6.408112403157341,groupB
6.408112403157341,groupB
6.408112403157341,groupB
6.408112403157341,groupB
6.408112403157341,groupA
6.408112403157341,groupB
6.408112403157341,groupB
6.408112403157341,groupB
6.408112403157341,groupA
6.408112403157341,groupB
6.408112403157341,groupA
6.408112403157341,groupB
6.408112403157341,groupB
6.408112403157341,groupA
6.408112403157341,groupB
6.408112403157341,groupA
6.408112403157341,groupA
6.408112403157341,groupA
6.408112403157341,groupA
6.408112403157341,groupB
6.408112403157341,groupB
6.408112403157341,groupA
6.408112403157341,groupB
6.408112403157341,groupA
6.408112403157341,groupA
6.408112403157341,groupA
6.408112403157341,groupB
6.408112403157341,groupB
6.408112403157341,groupB
6.408112403157341,groupA
6.408112403157341,groupB
6.408112403157341,groupB
6.408112403157341,groupB
6.408112403157341,groupB
6.408112403157341,groupA
6.408112403157341,groupA
6.408112403157341,groupA
6.408112403157341,groupB
6.408112403157341,groupA
6.408112403157341,groupB
6.408112403157341,groupB
6.408112403157341,groupB
6.408112403157341,groupA
6.408112403157341,groupB
6.408112403157341,groupB
6.408112403157341,groupB
6.408112403157341,groupA
6.408112403157341,groupA
6.408112403157341,groupB
6.408112403157341,groupB
6.408112403157341,groupA
6.408112403157341,groupB
6.408112403157341,groupB
6.408112403157341,groupB
6.408112403157341,groupB
6.408112403157341,groupA
6.408112403157341,groupB
6.408112403157341,groupB
6.408112403157341,groupA
6.408112403157341,groupB
6.408112403157341,groupA
6.408112403157341,groupA
6.408112403157341,groupB
6.408112403157341,groupB
6.408112403157341,groupB
6.408112403157341,groupA
6.408112403157341,groupB
6.408112403157341,groupA
6.408112403157341,groupA
6.408112403157341,groupA
6.408112403157341,groupA
6.408112403157341,groupB
6.408112403157341,groupB
6.408112403157341,groupB
6.408112403157341,groupB
6.408112403157341,groupA
6.408112403157341,groupB
6.408112403157341,groupB
6.408112403157341,groupA
6.408112403157341,groupB
6.408112403157341,groupB
6.408112403157341,groupB
6.408112403157341,groupA
6.408112403157341,groupB
6.408112403157341,groupB
6.408112403157341,groupB
6.408112403157341,groupB
6.408112403157341,groupB
6.408112403157341,groupA
6.408112403157341,groupB
6.408112403157341,groupB
6.408112403157341,groupB
6.408112403157341,groupA
6.408112403157341,groupB
6.408112403157341,groupB
6.408112403157341,groupB
6.408112403157341,groupB
6.408112403157341,groupA
6.408112403157341,groupB
6.408112403157341,groupB
6.408112403157341,groupB
6.408112403157341,groupB
6.408112403157341,groupA
6.408112403157341,groupB
6.408112403157341,groupB
6.408112403157341,groupA
6.408112403157341,groupA
6.408112403157341,groupB
6.408112403157341,groupB
6.408112403157341,groupB
6.408112403157341,groupA
6.408112403157341,groupB
6.408112403157341,groupB
6.408112403157341,groupA
6.408112403157341,groupB
6.408112403157341,groupB
6.408112403157341,groupB
6.408112403157341,groupB
6.408112403157341,groupA
6.408112403157341,groupB
6.408112403157341,groupB
6.408112403157341,groupB
6.408112403157341,groupA
6.408112403157341,groupB
6.408112403157341,groupA
6.408112403157341,groupA
6.408112403157341,groupB
6.408112403157341,groupA
6.408112403157341,groupA
6.408112403157341,groupA
6.408112403157341,groupB
6.408112403157341,groupB
6.408112403157341,groupA
6.408112403157341,groupA
6.408112403157341,groupA
6.408112403157341,groupB
6.408112403157341,groupB
6.408112403157341,groupB
6.408112403157341,groupB
6.408112403157341,groupB
6.408112403157341,groupA
6.408112403157341,groupB
6.408112403157341,groupB
6.408112403157341,groupB
6.408112403157341,groupB
6.408112403157341,groupB
6.408112403157341,groupB
6.408112403157341,groupB
6.408112403157341,groupA
6.408112403157341,groupB
6.408112403157341,groupB
6.408112403157341,groupB
6.408112403157341,groupB
6.408112403157341,groupB
6.408112403157341,groupB
6.408112403157341,groupB
6.408112403157341,groupB
6.408112403157341,groupA
6.408112403157341,groupA
6.408112403157341,groupB
6.408112403157341,groupB
6.408112403157341,groupB
6.408112403157341,groupA
6.408112403157341,groupB
6.408112403157341,groupA
6.408112403157341,groupB
6.408112403157341,groupA
6.408112403157341,groupB
6.408112403157341,groupA
6.408112403157341,groupB
6.408112403157341,groupB
6.408112403157341,groupB
6.408112403157341,groupB
6.408112403157341,groupB
6.408112403157341,groupB
6.408112403157341,groupB
6.408112403157341,groupB
6.408112403157341,groupA
6.408112403157341,groupB
6.408112403157341,groupB
6.408112403157341,groupA
6.408112403157341,groupA
6.408112403157341,groupB
6.408112403157341,groupB
6.408112403157341,groupB
6.408112403157341,groupB
6.408112403157341,groupB
6.408112403157341,groupB
6.408112403157341,groupB
6.408112403157341,groupB
6.408112403157341,groupB
6.408112403157341,groupB
6.408112403157341,groupB
6.408112403157341,groupB
6.408112403157341,groupB
6.408112403157341,groupB
6.408112403157341,groupB
6.408112403157341,groupB
6.408112403157341,groupB
6.408112403157341,groupB
6.408112403157341,groupB
6.408112403157341,groupA
6.408112403157341,groupB
6.408112403157341,groupB
6.408112403157341,groupB
6.408112403157341,groupB
6.408112403157341,groupB
6.408112403157341,groupA
6.408112403157341,groupA
6.408112403157341,groupB
6.408112403157341,groupB
6.408112403157341,groupA
6.408112403157341,groupA
6.408112403157341,groupA
6.408112403157341,groupB
6.408112403157341,groupB
6.408112403157341,groupA
6.408112403157341,groupB
6.408112403157341,groupB
6.408112403157341,groupB
6.408112403157341,groupB
6.408112403157341,groupB
6.408112403157341,groupA
6.408112403157341,groupA
6.408112403157341,groupB
6.408112403157341,groupB
6.408112403157341,groupA
6.408112403157341,groupB
6.408112403157341,groupA
6.408112403157341,groupB
6.408112403157341,groupB
6.408112403157341,groupB
6.408112403157341,groupB
6.408112403157341,groupB
6.408112403157341,groupB
6.408112403157341,groupA
6.408112403157341,groupB
6.408112403157341,groupA
6.408112403157341,groupB
6.408112403157341,groupB
6.408112403157341,groupA
6.408112403157341,groupB
6.408112403157341,groupA
6.408112403157341,groupB
6.408112403157341,groupA
6.408112403157341,groupA
6.408112403157341,groupB
6.408112403157341,groupB
6.408112403157341,groupB
6.408112403157341,groupA
6.408112403157341,groupB
6.408112403157341,groupB
6.408112403157341,groupB
6.408112403157341,groupB
6.408112403157341,groupB
6.408112403157341,groupB
6.408112403157341,groupB
6.408112403157341,groupB
6.408112403157341,groupA
6.408112403157341,groupB
6.408112403157341,groupB
6.408112403157341,groupB
6.408112403157341,groupB
6.408112403157341,groupA
6.408112403157341,groupA
6.408112403157341,groupA
6.408112403157341,groupB
6.408112403157341,groupA
6.408112403157341,groupB
6.408112403157341,groupA
6.408112403157341,groupB
6.408112403157341,groupA
6.408112403157341,groupB
6.408112403157341,groupB
6.408112403157341,groupB
6.408112403157341,groupB
6.408112403157341,groupA
6.408112403157341,groupB
6.408112403157341,groupA
6.408112403157341,groupB
6.408112403157341,groupB
6.408112403157341,groupA
6.408112403157341,groupB
6.408112403157341,groupB
6.408112403157341,groupB
6.408112403157341,groupB
6.408112403157341,groupB
6.408112403157341,groupB
6.408112403157341,groupA
6.408112403157341,groupA
6.408112403157341,groupB
6.408112403157341,groupB
6.408112403157341,groupA
6.408112403157341,groupA
6.408112403157341,groupA
6.408112403157341,groupB
6.408112403157341,groupB
6.408112403157341,groupB
6.408112403157341,groupB
6.408112403157341,groupA
6.408112403157341,groupB
6.408112403157341,groupB
6.408112403157341,groupB
6.408112403157341,groupB
6.408112403157341,groupA
6.408112403157341,groupB
6.408112403157341,groupB
6.408112403157341,groupB
6.408112403157341,groupA
6.408112403157341,groupB
6.408112403157341,groupB
6.408112403157341,groupA
6.408112403157341,groupB
6.408112403157341,groupB
6.408112403157341,groupB
6.408112403157341,groupB
6.408112403157341,groupB
6.408112403157341,groupA
6.408112403157341,groupB
6.408112403157341,groupB
6.408112403157341,groupB
6.408112403157341,groupB
6.408112403157341,groupA
6.408112403157341,groupA
6.408112403157341,groupB
6.408112403157341,groupA
6.408112403157341,groupB
6.408112403157341,groupB
6.408112403157341,groupB
6.408112403157341,groupB
6.408112403157341,groupB
6.408112403157341,groupB
6.408112403157341,groupA
6.408112403157341,groupB
6.408112403157341,groupB
6.408112403157341,groupB
6.408112403157341,groupA
6.408112403157341,groupB
6.408112403157341,groupB
6.408112403157341,groupA
6.408112403157341,groupB
6.408112403157341,groupA
6.408112403157341,groupA
6.408112403157341,groupB
6.408112403157341,groupA
6.408112403157341,groupB
6.408112403157341,groupB
6.408112403157341,groupB
6.408112403157341,groupB
6.408112403157341,groupB
6.408112403157341,groupB
6.408112403157341,groupB
6.408112403157341,groupA
6.408112403157341,groupB
6.408112403157341,groupB
6.408112403157341,groupB
6.408112403157341,groupA
6.408112403157341,groupB
6.408112403157341,groupB
6.408112403157341,groupB
6.408112403157341,groupB
6.408112403157341,groupB
6.408112403157341,groupA
6.408112403157341,groupB
6.408112403157341,groupB
6.408112403157341,groupB
6.408112403157341,groupB
6.408112403157341,groupB
6.408112403157341,groupB
6.408112403157341,groupB
6.408112403157341,groupB
6.408112403157341,groupB
6.408112403157341,groupB
6.408112403157341,groupB
6.408112403157341,groupB
6.408112403157341,groupB
6.408112403157341,groupB
6.408112403157341,groupB
6.408112403157341,groupB
6.408112403157341,groupB
6.408112403157341,groupB
6.408112403157341,groupB
6.408112403157341,groupB
6.408112403157341,groupA
6.408112403157341,groupB
6.408112403157341,groupA
6.408112403157341,groupA
6.408112403157341,groupA
6.408112403157341,groupB
6.408112403157341,groupB
6.408112403157341,groupA
6.408112403157341,groupB
6.408112403157341,groupA
6.408112403157341,groupB
6.408112403157341,groupB
6.408112403157341,groupA
6.408112403157341,groupB
6.408112403157341,groupA
6.408112403157341,groupB
6.408112403157341,groupB
6.408112403157341,groupA
6.408112403157341,groupB
6.408112403157341,groupB
6.408112403157341,groupB
6.408112403157341,groupA
6.408112403157341,groupA
6.408112403157341,groupA
6.408112403157341,groupB
6.408112403157341,groupB
6.408112403157341,groupA
6.408112403157341,groupA
6.408112403157341,groupB
6.408112403157341,groupB
6.408112403157341,groupB
6.408112403157341,groupB
6.408112403157341,groupA
6.408112403157341,groupA
6.408112403157341,groupB
6.408112403157341,groupB
6.408112403157341,groupB
6.408112403157341,groupB
6.408112403157341,groupA
6.408112403157341,groupB
6.408112403157341,groupB
6.408112403157341,groupB
6.408112403157341,groupA
6.408112403157341,groupB
6.408112403157341,groupA
6.408112403157341,groupB
6.408112403157341,groupA
6.408112403157341,groupA
6.408112403157341,groupB
6.408112403157341,groupA
6.408112403157341,groupB
6.408112403157341,groupB
6.408112403157341,groupB
6.408112403157341,groupB
6.408112403157341,groupB
6.408112403157341,groupA
6.408112403157341,groupB
6.408112403157341,groupB
6.408112403157341,groupA
6.408112403157341,groupB
6.408112403157341,groupB
6.408112403157341,groupA
6.408112403157341,groupA
6.408112403157341,groupB
6.408112403157341,groupB
6.408112403157341,groupB
6.408112403157341,groupB
6.408112403157341,groupA
6.408112403157341,groupB
6.408112403157341,groupB
6.408112403157341,groupA
6.408112403157341,groupB
6.408112403157341,groupB
6.408112403157341,groupB
6.408112403157341,groupB
6.408112403157341,groupB
6.408112403157341,groupA
6.408112403157341,groupA
6.408112403157341,groupA
6.408112403157341,groupB
6.408112403157341,groupA
6.408112403157341,groupB
6.408112403157341,groupB
6.408112403157341,groupB
6.408112403157341,groupB
6.408112403157341,groupB
6.408112403157341,groupB
6.408112403157341,groupA
6.408112403157341,groupA
6.408112403157341,groupB
6.408112403157341,groupA
6.408112403157341,groupB
6.408112403157341,groupB
6.408112403157341,groupA
6.408112403157341,groupA
6.408112403157341,groupB
6.408112403157341,groupB
6.408112403157341,groupA
6.408112403157341,groupA
6.408112403157341,groupB
6.408112403157341,groupB
6.408112403157341,groupA
6.408112403157341,groupA
6.408112403157341,groupB
6.408112403157341,groupB
6.408112403157341,groupA
6.408112403157341,groupB
6.408112403157341,groupA
6.408112403157341,groupB
6.408112403157341,groupA
6.408112403157341,groupA
6.408112403157341,groupA
6.408112403157341,groupB
6.408112403157341,groupA
6.408112403157341,groupA
6.408112403157341,groupB
6.408112403157341,groupA
6.408112403157341,groupB
6.408112403157341,groupB
6.408112403157341,groupA
6.408112403157341,groupB
6.408112403157341,groupB
6.408112403157341,groupB
6.408112403157341,groupA
6.408112403157341,groupB
6.408112403157341,groupA
6.408112403157341,groupA
6.408112403157341,groupB
6.408112403157341,groupA
6.408112403157341,groupB
6.408112403157341,groupA
6.408112403157341,groupB
6.408112403157341,groupB
6.408112403157341,groupA
6.408112403157341,groupB
6.408112403157341,groupA
6.408112403157341,groupB
6.408112403157341,groupB
6.408112403157341,groupB
6.408112403157341,groupA
6.408112403157341,groupB
6.408112403157341,groupB
6.408112403157341,groupB
6.408112403157341,groupA
6.408112403157341,groupA
6.408112403157341,groupA
6.408112403157341,groupB
6.408112403157341,groupA
6.408112403157341,groupB
6.408112403157341,groupB
6.408112403157341,groupA
6.408112403157341,groupB
6.408112403157341,groupA
6.408112403157341,groupA
6.408112403157341,groupB
6.408112403157341,groupA
6.408112403157341,groupB
6.408112403157341,groupB
6.408112403157341,groupB
6.408112403157341,groupB
6.408112403157341,groupB
6.408112403157341,groupB
6.408112403157341,groupA
6.408112403157341,groupB
6.408112403157341,groupB
6.408112403157341,groupB
6.408112403157341,groupA
6.408112403157341,groupB
6.408112403157341,groupB
6.408112403157341,groupB
6.408112403157341,groupB
6.408112403157341,groupB
6.408112403157341,groupA
6.408112403157341,groupB
6.408112403157341,groupB
6.408112403157341,groupB
6.408112403157341,groupB
6.408112403157341,groupB
6.408112403157341,groupB
6.408112403157341,groupB
6.408112403157341,groupA
6.408112403157341,groupA
6.408112403157341,groupA
6.408112403157341,groupB
6.408112403157341,groupA
6.408112403157341,groupB
6.408112403157341,groupB
6.408112403157341,groupB
6.408112403157341,groupB
6.408112403157341,groupB
6.408112403157341,groupA
6.408112403157341,groupB
6.408112403157341,groupA
6.408112403157341,groupB
6.408112403157341,groupB
6.408112403157341,groupB
6.408112403157341,groupB
6.408112403157341,groupB
6.408112403157341,groupB
6.408112403157341,groupB
6.408112403157341,groupA
6.408112403157341,groupA
6.408112403157341,groupB
6.408112403157341,groupB
6.408112403157341,groupA
6.408112403157341,groupB
6.408112403157341,groupA
6.408112403157341,groupA
6.408112403157341,groupB
6.408112403157341,groupB
6.408112403157341,groupA
6.408112403157341,groupA
6.408112403157341,groupA
6.408112403157341,groupB
6.408112403157341,groupB
6.408112403157341,groupA
6.408112403157341,groupB
6.408112403157341,groupB
6.408112403157341,groupB
6.408112403157341,groupA
6.408112403157341,groupA
6.408112403157341,groupA
6.408112403157341,groupA
6.408112403157341,groupB
6.408112403157341,groupA
6.408112403157341,groupA
6.408112403157341,groupA
6.408112403157341,groupB
6.408112403157341,groupB
6.408112403157341,groupB
6.408112403157341,groupB
6.408112403157341,groupB
6.408112403157341,groupA
6.408112403157341,groupA
6.408112403157341,groupA
6.408112403157341,groupB
6.408112403157341,groupB
6.408112403157341,groupB
6.408112403157341,groupB
6.408112403157341,groupB
6.408112403157341,groupB
6.408112403157341,groupB
6.408112403157341,groupA
6.408112403157341,groupB
6.408112403157341,groupB
6.408112403157341,groupB
6.408112403157341,groupB
6.408112403157341,groupB
6.408112403157341,groupB
6.408112403157341,groupA
6.408112403157341,groupB
6.408112403157341,groupA
6.408112403157341,groupB
6.408112403157341,groupB
6.408112403157341,groupB
6.408112403157341,groupB
6.408112403157341,groupA
6.408112403157341,groupB
6.408112403157341,groupB
6.408112403157341,groupA
6.408112403157341,groupB
6.408112403157341,groupB
6.408112403157341,groupA
6.408112403157341,groupB
6.408112403157341,groupA
6.408112403157341,groupB
6.408112403157341,groupB
6.408112403157341,groupB
6.408112403157341,groupA
6.408112403157341,groupB
6.408112403157341,groupA
6.408112403157341,groupA
6.408112403157341,groupB
6.408112403157341,groupB
6.408112403157341,groupA
6.408112403157341,groupA
6.408112403157341,groupB
6.408112403157341,groupA
6.408112403157341,groupB
6.408112403157341,groupB
6.408112403157341,groupB
6.408112403157341,groupB
6.408112403157341,groupA
6.408112403157341,groupB
6.408112403157341,groupA
6.408112403157341,groupB
6.408112403157341,groupA
6.408112403157341,groupB
6.408112403157341,groupA
6.408112403157341,groupB
6.408112403157341,groupA
6.408112403157341,groupA
6.408112403157341,groupB
6.408112403157341,groupB
6.408112403157341,groupA
6.408112403157341,groupA
6.408112403157341,groupB
6.408112403157341,groupA
6.408112403157341,groupA
6.408112403157341,groupB
6.408112403157341,groupB
6.408112403157341,groupB
6.408112403157341,groupB
6.408112403157341,groupB
6.408112403157341,groupB
6.408112403157341,groupB
6.408112403157341,groupA
6.408112403157341,groupB
6.408112403157341,groupB
6.408112403157341,groupB
6.408112403157341,groupB
6.408112403157341,groupB
6.408112403157341,groupB
6.408112403157341,groupB
6.408112403157341,groupB
6.408112403157341,groupB
6.408112403157341,groupA
6.408112403157341,groupB
6.408112403157341,groupB
6.408112403157341,groupA
6.408112403157341,groupA
6.408112403157341,groupA
6.408112403157341,groupB
6.408112403157341,groupB
6.408112403157341,groupA
6.408112403157341,groupB
6.408112403157341,groupB
6.408112403157341,groupB
6.408112403157341,groupB
6.408112403157341,groupA
6.408112403157341,groupB
6.408112403157341,groupA
6.408112403157341,groupB
6.408112403157341,groupA
6.408112403157341,groupB
6.408112403157341,groupB
6.408112403157341,groupA
6.408112403157341,groupA
6.408112403157341,groupB
6.408112403157341,groupB
6.408112403157341,groupA
6.408112403157341,groupB
6.408112403157341,groupA
6.408112403157341,groupB
6.408112403157341,groupB
6.408112403157341,groupB
6.408112403157341,groupA
6.408112403157341,groupA
6.408112403157341,groupB
6.408112403157341,groupB
6.408112403157341,groupB
6.408112403157341,groupA
6.408112403157341,groupA
6.408112403157341,groupB
6.408112403157341,groupB
6.408112403157341,groupB
6.408112403157341,groupA
6.408112403157341,groupB
6.408112403157341,groupA
6.408112403157341,groupA
6.408112403157341,groupB
6.408112403157341,groupB
6.408112403157341,groupB
6.408112403157341,groupA
6.408112403157341,groupB
6.408112403157341,groupA
6.408112403157341,groupB
6.408112403157341,groupA
6.408112403157341,groupA
6.408112403157341,groupB
6.408112403157341,groupB
6.408112403157341,groupB
6.408112403157341,groupB
6.408112403157341,groupB
6.408112403157341,groupA
6.408112403157341,groupA
6.408112403157341,groupA
6.408112403157341,groupB
6.408112403157341,groupB
6.408112403157341,groupB
6.408112403157341,groupB
6.408112403157341,groupB
6.408112403157341,groupB
6.408112403157341,groupB
6.408112403157341,groupB
6.408112403157341,groupB
6.408112403157341,groupA
6.408112403157341,groupB
6.408112403157341,groupB
6.408112403157341,groupB
6.408112403157341,groupB
6.408112403157341,groupB
6.408112403157341,groupB
6.408112403157341,groupB
6.408112403157341,groupA
6.408112403157341,groupB
6.408112403157341,groupB
6.408112403157341,groupB
6.408112403157341,groupB
6.408112403157341,groupB
6.408112403157341,groupB
6.408112403157341,groupA
6.408112403157341,groupB
6.408112403157341,groupB
6.408112403157341,groupA
6.408112403157341,groupA
6.408112403157341,groupB
6.408112403157341,groupB
6.408112403157341,groupB
6.408112403157341,groupB
6.408112403157341,groupB
6.408112403157341,groupB
6.408112403157341,groupB
6.408112403157341,groupB
6.408112403157341,groupB
6.408112403157341,groupB
6.408112403157341,groupB
6.408112403157341,groupB
6.408112403157341,groupB
6.408112403157341,groupB
6.408112403157341,groupB
6.408112403157341,groupB
6.408112403157341,groupB
6.408112403157341,groupA
6.408112403157341,groupA
6.408112403157341,groupA
6.408112403157341,groupA
6.408112403157341,groupB
6.408112403157341,groupB
6.408112403157341,groupA
6.408112403157341,groupA
6.408112403157341,groupB
6.408112403157341,groupA
6.408112403157341,groupB
6.408112403157341,groupA
6.408112403157341,groupB
6.408112403157341,groupB
6.408112403157341,groupB
6.408112403157341,groupA
6.408112403157341,groupA
6.408112403157341,groupB
6.408112403157341,groupB
6.408112403157341,groupB
6.408112403157341,groupB
6.408112403157341,groupB
6.408112403157341,groupB
6.408112403157341,groupB
6.408112403157341,groupB
6.408112403157341,groupA
6.408112403157341,groupB
6.408112403157341,groupB
6.408112403157341,groupA
6.408112403157341,groupB
6.408112403157341,groupB
6.408112403157341,groupA
6.408112403157341,groupB
6.408112403157341,groupB
6.408112403157341,groupB
6.408112403157341,groupA
6.408112403157341,groupB
6.408112403157341,groupA
6.408112403157341,groupB
6.408112403157341,groupB
6.408112403157341,groupB
6.408112403157341,groupA
6.408112403157341,groupB
6.408112403157341,groupA
6.408112403157341,groupB
6.408112403157341,groupB
6.408112403157341,groupB
6.408112403157341,groupA
6.408112403157341,groupB
6.408112403157341,groupB
6.408112403157341,groupA
6.408112403157341,groupB
6.408112403157341,groupA
6.408112403157341,groupB
6.408112403157341,groupA
6.408112403157341,groupA
6.408112403157341,groupB
6.408112403157341,groupA
6.408112403157341,groupB
6.408112403157341,groupB
6.408112403157341,groupA
6.408112403157341,groupB
6.408112403157341,groupA
6.408112403157341,groupB
6.408112403157341,groupB
6.408112403157341,groupB
6.408112403157341,groupA
6.408112403157341,groupB
6.408112403157341,groupB
6.408112403157341,groupA
6.408112403157341,groupA
6.408112403157341,groupB
6.408112403157341,groupB
6.408112403157341,groupB
6.408112403157341,groupB
6.408112403157341,groupA
6.408112403157341,groupA
6.408112403157341,groupB
6.408112403157341,groupB
6.408112403157341,groupB
6.408112403157341,groupB
6.408112403157341,groupB
6.408112403157341,groupA
6.408112403157341,groupA
6.408112403157341,groupB
6.408112403157341,groupB
6.408112403157341,groupB
6.408112403157341,groupA
6.408112403157341,groupA
6.408112403157341,groupA
6.408112403157341,groupA
6.408112403157341,groupA
6.408112403157341,groupB
6.408112403157341,groupB
6.408112403157341,groupA
6.408112403157341,groupA
6.408112403157341,groupA
6.408112403157341,groupB
6.408112403157341,groupB
6.408112403157341,groupB
6.408112403157341,groupB
6.408112403157341,groupB
6.408112403157341,groupB
6.408112403157341,groupB
6.408112403157341,groupA
6.408112403157341,groupB
6.408112403157341,groupB
6.408112403157341,groupB
6.408112403157341,groupB
6.408112403157341,groupB
6.408112403157341,groupB
6.408112403157341,groupB
6.408112403157341,groupB
6.408112403157341,groupB
6.408112403157341,groupB
6.408112403157341,groupB
6.408112403157341,groupB
6.408112403157341,groupB
6.408112403157341,groupA
6.408112403157341,groupB
6.408112403157341,groupA
6.408112403157341,groupA
6.408112403157341,groupB
6.408112403157341,groupA
6.408112403157341,groupA
6.408112403157341,groupA
6.408112403157341,groupB
6.408112403157341,groupB
6.408112403157341,groupB
6.408112403157341,groupB
6.408112403157341,groupB
6.408112403157341,groupB
6.408112403157341,groupB
6.408112403157341,groupB
6.408112403157341,groupB
6.408112403157341,groupB
6.408112403157341,groupA
6.408112403157341,groupB
6.408112403157341,groupB
6.408112403157341,groupB
6.408112403157341,groupB
6.408112403157341,groupA
6.408112403157341,groupB
6.408112403157341,groupB
6.408112403157341,groupB
6.408112403157341,groupB
6.408112403157341,groupB
6.408112403157341,groupB
6.408112403157341,groupB
6.408112403157341,groupA
6.408112403157341,groupA
6.408112403157341,groupB
6.408112403157341,groupB
6.408112403157341,groupB
6.408112403157341,groupA
6.408112403157341,groupA
6.408112403157341,groupB
6.408112403157341,groupB
6.408112403157341,groupB
6.408112403157341,groupA
6.408112403157341,groupA
6.408112403157341,groupB
6.408112403157341,groupA
6.408112403157341,groupB
6.408112403157341,groupB
6.408112403157341,groupB
6.408112403157341,groupB
6.408112403157341,groupB
6.408112403157341,groupA
6.408112403157341,groupB
6.408112403157341,groupB
6.408112403157341,groupB
6.408112403157341,groupA
6.408112403157341,groupB
6.408112403157341,groupB
6.408112403157341,groupB
6.408112403157341,groupB
6.408112403157341,groupA
6.408112403157341,groupB
6.408112403157341,groupA
6.408112403157341,groupB
6.408112403157341,groupB
6.408112403157341,groupB
6.408112403157341,groupB
6.408112403157341,groupA
6.408112403157341,groupB
6.408112403157341,groupB
6.408112403157341,groupB
6.408112403157341,groupB
6.408112403157341,groupA
6.408112403157341,groupB
6.408112403157341,groupA
6.408112403157341,groupA
6.408112403157341,groupA
6.408112403157341,groupA
6.408112403157341,groupB
6.408112403157341,groupA
6.408112403157341,groupA
6.408112403157341,groupA
6.408112403157341,groupB
6.408112403157341,groupA
6.408112403157341,groupA
6.408112403157341,groupB
6.408112403157341,groupB
6.408112403157341,groupB
6.408112403157341,groupB
6.408112403157341,groupA
6.408112403157341,groupA
6.408112403157341,groupB
6.408112403157341,groupA
6.408112403157341,groupB
6.408112403157341,groupB
6.408112403157341,groupB
6.408112403157341,groupB
6.408112403157341,groupB
6.408112403157341,groupB
6.408112403157341,groupB
6.408112403157341,groupB
6.408112403157341,groupB
6.408112403157341,groupB
6.408112403157341,groupA
6.408112403157341,groupA
6.408112403157341,groupB
6.408112403157341,groupB
6.408112403157341,groupA
6.408112403157341,groupB
6.408112403157341,groupB
6.408112403157341,groupB
6.408112403157341,groupB
6.408112403157341,groupA
6.408112403157341,groupB
6.408112403157341,groupA
6.408112403157341,groupA
6.408112403157341,groupB
6.408112403157341,groupB
6.408112403157341,groupB
6.408112403157341,groupB
6.408112403157341,groupB
6.408112403157341,groupB
6.408112403157341,groupA
6.408112403157341,groupA
6.408112403157341,groupB
6.408112403157341,groupB
6.408112403157341,groupB
6.408112403157341,groupB
6.408112403157341,groupB
6.408112403157341,groupA
6.408112403157341,groupA
6.408112403157341,groupB
6.408112403157341,groupB
6.408112403157341,groupA
6.408112403157341,groupB
6.408112403157341,groupB
6.408112403157341,groupA
6.408112403157341,groupA
6.408112403157341,groupA
6.408112403157341,groupB
6.408112403157341,groupA
6.408112403157341,groupB
6.408112403157341,groupB
6.408112403157341,groupB
6.408112403157341,groupA
6.408112403157341,groupA
6.408112403157341,groupB
6.408112403157341,groupA
6.408112403157341,groupA
6.408112403157341,groupB
6.408112403157341,groupA
6.408112403157341,groupA
6.408112403157341,groupA
6.408112403157341,groupB
6.408112403157341,groupA
6.408112403157341,groupA
6.408112403157341,groupA
6.408112403157341,groupB
6.408112403157341,groupB
6.408112403157341,groupB
6.408112403157341,groupB
6.408112403157341,groupB
6.408112403157341,groupB
6.408112403157341,groupB
6.408112403157341,groupB
6.408112403157341,groupB
6.408112403157341,groupB
6.408112403157341,groupA
6.408112403157341,groupB
6.408112403157341,groupB
6.408112403157341,groupB
6.408112403157341,groupB
6.408112403157341,groupA
6.408112403157341,groupB
6.408112403157341,groupB
6.408112403157341,groupA
6.408112403157341,groupB
6.408112403157341,groupB
6.408112403157341,groupB
6.408112403157341,groupB
6.408112403157341,groupB
6.408112403157341,groupA
6.408112403157341,groupA
6.408112403157341,groupB
6.408112403157341,groupB
6.408112403157341,groupB
6.408112403157341,groupB
6.408112403157341,groupA
6.408112403157341,groupB
6.408112403157341,groupB
6.408112403157341,groupB
6.408112403157341,groupB
6.408112403157341,groupB
6.408112403157341,groupA
6.408112403157341,groupB
6.408112403157341,groupA
6.408112403157341,groupB
6.408112403157341,groupB
6.408112403157341,groupA
6.408112403157341,groupA
6.408112403157341,groupB
6.408112403157341,groupB
6.408112403157341,groupB
6.408112403157341,groupB
6.408112403157341,groupB
6.408112403157341,groupA
6.408112403157341,groupB
6.408112403157341,groupB
6.408112403157341,groupB
6.408112403157341,groupB
6.408112403157341,groupB
6.408112403157341,groupB
6.408112403157341,groupA
6.408112403157341,groupA
6.408112403157341,groupA
6.408112403157341,groupB
6.408112403157341,groupB
6.408112403157341,groupB
6.408112403157341,groupB
6.408112403157341,groupA
6.408112403157341,groupB
6.408112403157341,groupB
6.408112403157341,groupB
6.408112403157341,groupA
6.408112403157341,groupB
6.408112403157341,groupB
6.408112403157341,groupB
6.408112403157341,groupB
6.408112403157341,groupB
6.408112403157341,groupA
6.408112403157341,groupB
6.408112403157341,groupB
6.408112403157341,groupA
6.408112403157341,groupB
6.408112403157341,groupB
6.408112403157341,groupB
6.408112403157341,groupB
6.408112403157341,groupB
6.408112403157341,groupB
6.408112403157341,groupA
6.408112403157341,groupB
6.408112403157341,groupB
6.408112403157341,groupB
6.408112403157341,groupB
6.408112403157341,groupB
6.408112403157341,groupA
6.408112403157341,groupB
6.408112403157341,groupB
6.408112403157341,groupB
6.408112403157341,groupB
6.408112403157341,groupB
6.408112403157341,groupB
6.408112403157341,groupA
6.408112403157341,groupB
6.408112403157341,groupB
6.408112403157341,groupB
6.408112403157341,groupA
6.408112403157341,groupB
6.408112403157341,groupA
6.408112403157341,groupB
6.408112403157341,groupB
6.408112403157341,groupA
6.408112403157341,groupA
6.408112403157341,groupB
6.408112403157341,groupA
6.408112403157341,groupA
6.408112403157341,groupA
6.408112403157341,groupB
6.408112403157341,groupB
6.408112403157341,groupB
6.408112403157341,groupB
6.408112403157341,groupB
6.408112403157341,groupA
6.408112403157341,groupB
6.408112403157341,groupB
6.408112403157341,groupB
6.408112403157341,groupB
6.408112403157341,groupB
6.408112403157341,groupB
6.408112403157341,groupB
6.408112403157341,groupB
6.408112403157341,groupB
6.408112403157341,groupB
6.408112403157341,groupB
6.408112403157341,groupB
6.408112403157341,groupB
6.408112403157341,groupB
6.408112403157341,groupB
6.408112403157341,groupB
6.408112403157341,groupB
6.408112403157341,groupB
6.408112403157341,groupA
6.408112403157341,groupB
6.408112403157341,groupA
6.408112403157341,groupB
6.408112403157341,groupB
6.408112403157341,groupB
6.408112403157341,groupB
6.408112403157341,groupB
6.408112403157341,groupB
6.408112403157341,groupB
6.408112403157341,groupA
6.408112403157341,groupA
6.408112403157341,groupB
6.408112403157341,groupB
6.408112403157341,groupB
6.408112403157341,groupA
6.408112403157341,groupB
6.408112403157341,groupB
6.408112403157341,groupB
6.408112403157341,groupA
6.408112403157341,groupA
6.408112403157341,groupB
6.408112403157341,groupA
6.408112403157341,groupA
6.408112403157341,groupB
6.408112403157341,groupB
6.408112403157341,groupB
6.408112403157341,groupB
6.408112403157341,groupB
6.408112403157341,groupA
6.408112403157341,groupB
6.408112403157341,groupB
6.408112403157341,groupB
6.408112403157341,groupB
6.408112403157341,groupB
6.408112403157341,groupA
6.408112403157341,groupB
6.408112403157341,groupB
6.408112403157341,groupA
6.408112403157341,groupB
6.408112403157341,groupA
6.408112403157341,groupB
6.408112403157341,groupB
6.408112403157341,groupB
6.408112403157341,groupB
6.408112403157341,groupA
6.408112403157341,groupB
6.408112403157341,groupB
6.408112403157341,groupB
6.408112403157341,groupA
6.408112403157341,groupB
6.408112403157341,groupB
6.408112403157341,groupB
6.408112403157341,groupB
6.408112403157341,groupB
6.408112403157341,groupB
6.408112403157341,groupB
6.408112403157341,groupA
6.408112403157341,groupB
6.408112403157341,groupB
6.408112403157341,groupA
6.408112403157341,groupB
6.408112403157341,groupB
6.408112403157341,groupA
6.408112403157341,groupB
6.408112403157341,groupB
6.408112403157341,groupB
6.408112403157341,groupB
6.408112403157341,groupA
6.408112403157341,groupA
6.408112403157341,groupA
6.408112403157341,groupB
6.408112403157341,groupB
6.408112403157341,groupA
6.408112403157341,groupA
6.408112403157341,groupB
6.408112403157341,groupB
6.408112403157341,groupA
6.408112403157341,groupB
6.408112403157341,groupB
6.408112403157341,groupB
6.408112403157341,groupB
6.408112403157341,groupB
6.408112403157341,groupB
6.408112403157341,groupB
6.408112403157341,groupA
6.408112403157341,groupB
6.408112403157341,groupA
6.408112403157341,groupB
6.408112403157341,groupA
6.408112403157341,groupB
6.408112403157341,groupB
6.408112403157341,groupB
6.408112403157341,groupB
6.408112403157341,groupA
6.408112403157341,groupB
6.408112403157341,groupB
6.408112403157341,groupB
6.408112403157341,groupB
6.408112403157341,groupB
6.408112403157341,groupA
6.408112403157341,groupA
6.408112403157341,groupA
6.408112403157341,groupB
6.408112403157341,groupB
6.408112403157341,groupA
6.408112403157341,groupB
6.408112403157341,groupB
6.408112403157341,groupB
6.408112403157341,groupA
6.408112403157341,groupA
6.408112403157341,groupB
6.408112403157341,groupB
6.408112403157341,groupB
6.408112403157341,groupB
6.408112403157341,groupB
6.408112403157341,groupB
6.408112403157341,groupA
6.408112403157341,groupB
6.408112403157341,groupB
6.408112403157341,groupA
6.408112403157341,groupB
6.408112403157341,groupA
6.408112403157341,groupA
6.408112403157341,groupA
6.408112403157341,groupB
6.408112403157341,groupB
6.408112403157341,groupA
6.408112403157341,groupB
6.408112403157341,groupB
6.408112403157341,groupB
6.408112403157341,groupB
6.408112403157341,groupB
6.408112403157341,groupB
6.408112403157341,groupB
6.408112403157341,groupB
6.408112403157341,groupB
6.408112403157341,groupB
6.408112403157341,groupA
6.408112403157341,groupA
6.408112403157341,groupB
6.408112403157341,groupB
6.408112403157341,groupA
6.408112403157341,groupA
6.408112403157341,groupA
6.408112403157341,groupB
6.408112403157341,groupB
6.408112403157341,groupB
6.408112403157341,groupB
6.408112403157341,groupB
6.408112403157341,groupB
6.408112403157341,groupB
6.408112403157341,groupB
6.408112403157341,groupB
6.408112403157341,groupB
6.408112403157341,groupB
6.408112403157341,groupB
6.408112403157341,groupB
6.408112403157341,groupB
6.408112403157341,groupB
6.408112403157341,groupB
6.408112403157341,groupB
6.408112403157341,groupB
6.408112403157341,groupB
6.408112403157341,groupB
6.408112403157341,groupB
6.408112403157341,groupB
6.408112403157341,groupB
6.408112403157341,groupA
6.408112403157341,groupB
6.408112403157341,groupA
6.408112403157341,groupB
6.408112403157341,groupB
6.408112403157341,groupB
6.408112403157341,groupB
6.408112403157341,groupB
6.408112403157341,groupB
6.408112403157341,groupA
6.408112403157341,groupB
6.408112403157341,groupA
6.408112403157341,groupA
6.408112403157341,groupA
6.408112403157341,groupB
6.408112403157341,groupB
6.408112403157341,groupB
6.408112403157341,groupA
6.408112403157341,groupB
6.408112403157341,groupA
6.408112403157341,groupB
6.408112403157341,groupA
6.408112403157341,groupB
6.408112403157341,groupB
6.408112403157341,groupB
6.408112403157341,groupB
6.408112403157341,groupB
6.408112403157341,groupB
6.408112403157341,groupB
6.408112403157341,groupB
6.408112403157341,groupB
6.408112403157341,groupB
6.408112403157341,groupB
6.408112403157341,groupB
6.408112403157341,groupA
6.408112403157341,groupA
6.408112403157341,groupA
6.408112403157341,groupB
6.408112403157341,groupB
6.408112403157341,groupB
6.408112403157341,groupB
6.408112403157341,groupB
6.408112403157341,groupB
6.408112403157341,groupB
6.408112403157341,groupA
6.408112403157341,groupA
6.408112403157341,groupB
6.408112403157341,groupB
6.408112403157341,groupB
6.408112403157341,groupB
6.408112403157341,groupB
6.408112403157341,groupB
6.408112403157341,groupB
6.408112403157341,groupB
6.408112403157341,groupB
6.408112403157341,groupB
6.408112403157341,groupA
6.408112403157341,groupA
6.408112403157341,groupB
6.408112403157341,groupA
6.408112403157341,groupB
6.408112403157341,groupB
6.408112403157341,groupB
6.408112403157341,groupB
6.408112403157341,groupB
6.408112403157341,groupB
6.408112403157341,groupB
6.408112403157341,groupB
6.408112403157341,groupB
6.408112403157341,groupB
6.408112403157341,groupB
6.408112403157341,groupB
6.408112403157341,groupB
6.408112403157341,groupB
6.408112403157341,groupB
6.408112403157341,groupB
6.408112403157341,groupB
6.408112403157341,groupB
6.408112403157341,groupA
6.408112403157341,groupA
6.408112403157341,groupB
6.408112403157341,groupA
6.408112403157341,groupB
6.408112403157341,groupB
6.408112403157341,groupA
6.408112403157341,groupB
6.408112403157341,groupA
6.408112403157341,groupA
6.408112403157341,groupA
6.408112403157341,groupA
6.408112403157341,groupB
6.408112403157341,groupA
6.408112403157341,groupB
6.408112403157341,groupB
6.408112403157341,groupB
6.408112403157341,groupB
6.408112403157341,groupB
6.408112403157341,groupB
6.408112403157341,groupA
6.408112403157341,groupA
6.408112403157341,groupB
6.408112403157341,groupB
6.408112403157341,groupB
6.408112403157341,groupB
6.408112403157341,groupB
6.408112403157341,groupA
6.408112403157341,groupB
6.408112403157341,groupB
6.408112403157341,groupB
6.408112403157341,groupB
6.408112403157341,groupB
6.408112403157341,groupA
6.408112403157341,groupB
6.408112403157341,groupB
6.408112403157341,groupB
6.408112403157341,groupB
6.408112403157341,groupB
6.408112403157341,groupB
6.408112403157341,groupB
6.408112403157341,groupB
6.408112403157341,groupB
6.408112403157341,groupB
6.408112403157341,groupB
6.408112403157341,groupB
6.408112403157341,groupB
6.408112403157341,groupB
6.408112403157341,groupA
6.408112403157341,groupB
6.408112403157341,groupA
6.408112403157341,groupB
6.408112403157341,groupA
6.408112403157341,groupA
6.408112403157341,groupB
6.408112403157341,groupB
6.408112403157341,groupB
6.408112403157341,groupA
6.408112403157341,groupB
6.408112403157341,groupB
6.408112403157341,groupA
6.408112403157341,groupA
6.408112403157341,groupB
6.408112403157341,groupB
6.408112403157341,groupB
6.408112403157341,groupA
6.408112403157341,groupB
6.408112403157341,groupB
6.408112403157341,groupB
6.408112403157341,groupB
6.408112403157341,groupA
6.408112403157341,groupB
6.408112403157341,groupA
6.408112403157341,groupA
6.408112403157341,groupB
6.408112403157341,groupB
6.408112403157341,groupB
6.408112403157341,groupB
6.408112403157341,groupB
6.408112403157341,groupB
6.408112403157341,groupB
6.408112403157341,groupB
6.408112403157341,groupB
6.408112403157341,groupB
6.408112403157341,groupB
6.408112403157341,groupB
6.408112403157341,groupB
6.408112403157341,groupA
6.408112403157341,groupB
6.408112403157341,groupA
6.408112403157341,groupB
6.408112403157341,groupB
6.408112403157341,groupB
6.408112403157341,groupA
6.408112403157341,groupB
6.408112403157341,groupB
6.408112403157341,groupB
6.408112403157341,groupB
6.408112403157341,groupB
6.408112403157341,groupB
6.408112403157341,groupB
6.408112403157341,groupB
6.408112403157341,groupA
6.408112403157341,groupB
6.408112403157341,groupB
6.408112403157341,groupB
6.408112403157341,groupB
6.408112403157341,groupB
6.408112403157341,groupB
6.408112403157341,groupB
6.408112403157341,groupB
6.408112403157341,groupB
6.408112403157341,groupB
6.408112403157341,groupB
6.408112403157341,groupA
6.408112403157341,groupB
6.408112403157341,groupA
6.408112403157341,groupB
6.408112403157341,groupA
6.408112403157341,groupB
6.408112403157341,groupB
6.408112403157341,groupB
6.408112403157341,groupA
6.408112403157341,groupA
6.408112403157341,groupB
6.408112403157341,groupA
6.408112403157341,groupB
6.408112403157341,groupB
6.408112403157341,groupB
6.408112403157341,groupB
6.408112403157341,groupB
6.408112403157341,groupA
6.408112403157341,groupB
6.408112403157341,groupA
6.408112403157341,groupA
6.408112403157341,groupA
6.408112403157341,groupB
6.408112403157341,groupB
6.408112403157341,groupB
6.408112403157341,groupB
6.408112403157341,groupB
6.408112403157341,groupA
6.408112403157341,groupB
6.408112403157341,groupB
6.408112403157341,groupA
6.408112403157341,groupA
6.408112403157341,groupB
6.408112403157341,groupB
6.408112403157341,groupB
6.408112403157341,groupB
6.408112403157341,groupB
6.408112403157341,groupA
6.408112403157341,groupB
6.408112403157341,groupA
6.408112403157341,groupB
6.408112403157341,groupA
6.408112403157341,groupB
6.408112403157341,groupB
6.408112403157341,groupB
6.408112403157341,groupB
6.408112403157341,groupB
6.408112403157341,groupB
6.408112403157341,groupB
6.408112403157341,groupA
6.408112403157341,groupB
6.408112403157341,groupA
6.408112403157341,groupA
6.408112403157341,groupA
6.408112403157341,groupB
6.408112403157341,groupB
6.408112403157341,groupA
6.408112403157341,groupA
6.408112403157341,groupA
6.408112403157341,groupA
6.408112403157341,groupA
6.408112403157341,groupA
6.408112403157341,groupB
6.408112403157341,groupB
6.408112403157341,groupB
6.408112403157341,groupA
6.408112403157341,groupB
6.408112403157341,groupB
6.408112403157341,groupB
6.408112403157341,groupB
6.408112403157341,groupB
6.408112403157341,groupA
6.408112403157341,groupB
6.408112403157341,groupB
6.408112403157341,groupB
6.408112403157341,groupB
6.408112403157341,groupA
6.408112403157341,groupB
6.408112403157341,groupB
6.408112403157341,groupB
6.408112403157341,groupA
6.408112403157341,groupA
6.408112403157341,groupB
6.408112403157341,groupA
6.408112403157341,groupB
6.408112403157341,groupB
6.408112403157341,groupA
6.408112403157341,groupA
6.408112403157341,groupB
6.408112403157341,groupA
6.408112403157341,groupB
6.408112403157341,groupB
6.408112403157341,groupA
6.408112403157341,groupB
6.408112403157341,groupA
6.408112403157341,groupB
6.408112403157341,groupA
6.408112403157341,groupB
6.408112403157341,groupB
6.408112403157341,groupB
6.408112403157341,groupA
6.408112403157341,groupA
6.408112403157341,groupB
6.408112403157341,groupB
6.408112403157341,groupB
6.408112403157341,groupB
6.408112403157341,groupA
6.408112403157341,groupB
6.408112403157341,groupB
6.408112403157341,groupA
6.408112403157341,groupB
6.408112403157341,groupB
6.408112403157341,groupB
6.408112403157341,groupA
6.408112403157341,groupB
6.408112403157341,groupB
6.408112403157341,groupA
6.408112403157341,groupB
6.408112403157341,groupB
6.408112403157341,groupA
6.408112403157341,groupB
6.408112403157341,groupB
6.408112403157341,groupB
6.408112403157341,groupB
6.408112403157341,groupA
6.408112403157341,groupB
6.408112403157341,groupB
6.408112403157341,groupB
6.408112403157341,groupB
6.408112403157341,groupA
6.408112403157341,groupB
6.408112403157341,groupA
6.408112403157341,groupA
6.408112403157341,groupB
6.408112403157341,groupA
6.408112403157341,groupB
6.408112403157341,groupB
6.408112403157341,groupB
6.408112403157341,groupB
6.408112403157341,groupB
6.408112403157341,groupA
6.408112403157341,groupB
6.408112403157341,groupB
6.408112403157341,groupA
6.408112403157341,groupB
6.408112403157341,groupB
6.408112403157341,groupB
6.408112403157341,groupA
6.408112403157341,groupB
6.408112403157341,groupB
6.408112403157341,groupB
6.408112403157341,groupA
6.408112403157341,groupB
6.408112403157341,groupB
6.408112403157341,groupB
6.408112403157341,groupB
6.408112403157341,groupB
6.408112403157341,groupB
6.408112403157341,groupB
6.408112403157341,groupB
6.408112403157341,groupB
6.408112403157341,groupB
6.408112403157341,groupB
6.408112403157341,groupA
6.408112403157341,groupB
6.408112403157341,groupA
6.408112403157341,groupB
6.408112403157341,groupA
6.408112403157341,groupA
6.408112403157341,groupB
6.408112403157341,groupB
6.408112403157341,groupB
6.408112403157341,groupB
6.408112403157341,groupB
6.408112403157341,groupB
6.408112403157341,groupA
6.408112403157341,groupB
6.408112403157341,groupA
6.408112403157341,groupB
6.408112403157341,groupB
6.408112403157341,groupA
6.408112403157341,groupA
6.408112403157341,groupB
6.408112403157341,groupA
6.408112403157341,groupA
6.408112403157341,groupB
6.408112403157341,groupB
6.408112403157341,groupA
6.408112403157341,groupB
6.408112403157341,groupB
6.408112403157341,groupB
6.408112403157341,groupA
6.408112403157341,groupB
6.408112403157341,groupB
6.408112403157341,groupB
6.408112403157341,groupA
6.408112403157341,groupB
6.408112403157341,groupB
6.408112403157341,groupB
6.408112403157341,groupB
6.408112403157341,groupB
6.408112403157341,groupA
6.408112403157341,groupB
6.408112403157341,groupA
6.408112403157341,groupB
6.408112403157341,groupB
6.408112403157341,groupB
6.408112403157341,groupA
6.408112403157341,groupB
6.408112403157341,groupB
6.408112403157341,groupA
6.408112403157341,groupB
6.408112403157341,groupA
6.408112403157341,groupA
6.408112403157341,groupB
6.408112403157341,groupA
6.408112403157341,groupB
6.408112403157341,groupA
6.408112403157341,groupB
6.408112403157341,groupB
6.408112403157341,groupB
6.408112403157341,groupA
6.408112403157341,groupA
6.408112403157341,groupB
6.408112403157341,groupB
6.408112403157341,groupB
6.408112403157341,groupB
6.408112403157341,groupB
6.408112403157341,groupB
6.408112403157341,groupB
6.408112403157341,groupB
6.408112403157341,groupB
6.408112403157341,groupB
6.408112403157341,groupA
6.408112403157341,groupA
6.408112403157341,groupB
6.408112403157341,groupA
6.408112403157341,groupA
6.408112403157341,groupB
6.408112403157341,groupA
6.408112403157341,groupA
6.408112403157341,groupB
6.408112403157341,groupA
6.408112403157341,groupB
6.408112403157341,groupB
6.408112403157341,groupB
6.408112403157341,groupA
6.408112403157341,groupA
6.408112403157341,groupB
6.408112403157341,groupB
6.408112403157341,groupB
6.408112403157341,groupB
6.408112403157341,groupA
6.408112403157341,groupB
6.408112403157341,groupB
6.408112403157341,groupA
6.408112403157341,groupB
6.408112403157341,groupB
6.408112403157341,groupA
6.408112403157341,groupB
6.408112403157341,groupB
6.408112403157341,groupB
6.408112403157341,groupB
6.408112403157341,groupA
6.408112403157341,groupB
6.408112403157341,groupA
6.408112403157341,groupB
6.408112403157341,groupA
6.408112403157341,groupA
6.408112403157341,groupB
6.408112403157341,groupB
6.408112403157341,groupB
6.408112403157341,groupB
6.408112403157341,groupB
6.408112403157341,groupB
6.408112403157341,groupB
6.408112403157341,groupB
6.408112403157341,groupB
6.408112403157341,groupA
6.408112403157341,groupB
6.408112403157341,groupB
6.408112403157341,groupB
6.408112403157341,groupB
6.408112403157341,groupA
6.408112403157341,groupB
6.408112403157341,groupB
6.408112403157341,groupB
6.408112403157341,groupA
6.408112403157341,groupA
6.408112403157341,groupA
6.408112403157341,groupA
6.408112403157341,groupA
6.408112403157341,groupB
6.408112403157341,groupB
6.408112403157341,groupA
6.408112403157341,groupB
6.408112403157341,groupB
6.408112403157341,groupB
6.408112403157341,groupA
6.408112403157341,groupB
6.408112403157341,groupA
6.408112403157341,groupA
6.408112403157341,groupA
6.408112403157341,groupB
6.408112403157341,groupA
6.408112403157341,groupB
6.408112403157341,groupB
6.408112403157341,groupA
6.408112403157341,groupB
6.408112403157341,groupB
6.408112403157341,groupA
6.408112403157341,groupB
6.408112403157341,groupA
6.408112403157341,groupB
6.408112403157341,groupB
6.408112403157341,groupB
6.408112403157341,groupB
6.408112403157341,groupB
6.408112403157341,groupA
6.408112403157341,groupA
6.408112403157341,groupB
6.408112403157341,groupA
6.408112403157341,groupB
6.408112403157341,groupA
6.408112403157341,groupB
6.408112403157341,groupB
6.408112403157341,groupA
6.408112403157341,groupB
6.408112403157341,groupB
6.408112403157341,groupB
6.408112403157341,groupA
6.408112403157341,groupB
6.408112403157341,groupA
6.408112403157341,groupA
6.408112403157341,groupA
6.408112403157341,groupB
6.408112403157341,groupA
6.408112403157341,groupB
6.408112403157341,groupB
6.408112403157341,groupA
6.408112403157341,groupB
6.408112403157341,groupB
6.408112403157341,groupB
6.408112403157341,groupB
6.408112403157341,groupA
6.408112403157341,groupB
6.408112403157341,groupA
6.408112403157341,groupB
6.408112403157341,groupA
6.408112403157341,groupB
6.408112403157341,groupA
6.408112403157341,groupB
6.408112403157341,groupB
6.408112403157341,groupB
6.408112403157341,groupB
6.408112403157341,groupB
6.408112403157341,groupB
6.408112403157341,groupB
6.408112403157341,groupB
6.408112403157341,groupB
6.408112403157341,groupA
6.408112403157341,groupA
6.408112403157341,groupA
6.408112403157341,groupB
6.408112403157341,groupA
6.408112403157341,groupB
6.408112403157341,groupB
6.408112403157341,groupB
6.408112403157341,groupB
6.408112403157341,groupB
6.408112403157341,groupB
6.408112403157341,groupB
6.408112403157341,groupB
6.408112403157341,groupB
6.408112403157341,groupA
6.408112403157341,groupB
6.408112403157341,groupA
6.408112403157341,groupA
6.408112403157341,groupA
6.408112403157341,groupA
6.408112403157341,groupB
6.408112403157341,groupB
6.408112403157341,groupA
6.408112403157341,groupA
6.408112403157341,groupB
6.408112403157341,groupB
6.408112403157341,groupB
6.408112403157341,groupB
6.408112403157341,groupB
6.408112403157341,groupB
6.408112403157341,groupB
6.408112403157341,groupB
6.408112403157341,groupA
6.408112403157341,groupB
6.408112403157341,groupB
6.408112403157341,groupA
6.408112403157341,groupA
6.408112403157341,groupA
6.408112403157341,groupB
6.408112403157341,groupB
6.408112403157341,groupB
6.408112403157341,groupA
6.408112403157341,groupB
6.408112403157341,groupA
6.408112403157341,groupA
6.408112403157341,groupB
6.408112403157341,groupB
6.408112403157341,groupB
6.408112403157341,groupB
6.408112403157341,groupA
6.408112403157341,groupA
6.408112403157341,groupB
6.408112403157341,groupB
6.408112403157341,groupA
6.408112403157341,groupB
6.408112403157341,groupB
6.408112403157341,groupB
6.408112403157341,groupB
6.408112403157341,groupA
6.408112403157341,groupB
6.408112403157341,groupB
6.408112403157341,groupB
6.408112403157341,groupA
6.408112403157341,groupB
6.408112403157341,groupA
6.408112403157341,groupB
6.408112403157341,groupB
6.408112403157341,groupB
6.408112403157341,groupB
6.408112403157341,groupB
6.408112403157341,groupB
6.408112403157341,groupB
6.408112403157341,groupB
6.408112403157341,groupB
6.408112403157341,groupA
6.408112403157341,groupA
6.408112403157341,groupB
6.408112403157341,groupB
6.408112403157341,groupA
6.408112403157341,groupA
6.408112403157341,groupA
6.408112403157341,groupB
6.408112403157341,groupB
6.408112403157341,groupA
6.408112403157341,groupB
6.408112403157341,groupB
6.408112403157341,groupB
6.408112403157341,groupA
6.408112403157341,groupB
6.408112403157341,groupB
6.408112403157341,groupB
6.408112403157341,groupB
6.408112403157341,groupB
6.408112403157341,groupB
6.408112403157341,groupB
6.408112403157341,groupA
6.408112403157341,groupA
6.408112403157341,groupB
6.408112403157341,groupA
6.408112403157341,groupA
6.408112403157341,groupB
6.408112403157341,groupB
6.408112403157341,groupB
6.408112403157341,groupB
6.408112403157341,groupA
6.408112403157341,groupA
6.408112403157341,groupB
6.408112403157341,groupB
6.408112403157341,groupB
6.408112403157341,groupB
6.408112403157341,groupB
6.408112403157341,groupA
6.408112403157341,groupB
6.408112403157341,groupB
6.408112403157341,groupA
6.408112403157341,groupB
6.408112403157341,groupB
6.408112403157341,groupB
6.408112403157341,groupA
6.408112403157341,groupB
6.408112403157341,groupB
6.408112403157341,groupA
6.408112403157341,groupB
6.408112403157341,groupB
6.408112403157341,groupA
6.408112403157341,groupA
6.408112403157341,groupB
6.408112403157341,groupB
6.408112403157341,groupB
6.408112403157341,groupB
6.408112403157341,groupB
6.408112403157341,groupB
6.408112403157341,groupB
6.408112403157341,groupB
6.408112403157341,groupB
6.408112403157341,groupB
6.408112403157341,groupB
6.408112403157341,groupB
6.408112403157341,groupA
6.408112403157341,groupA
6.408112403157341,groupB
6.408112403157341,groupB
6.408112403157341,groupA
6.408112403157341,groupA
6.408112403157341,groupB
6.408112403157341,groupB
6.408112403157341,groupB
6.408112403157341,groupA
6.408112403157341,groupB
6.408112403157341,groupB
6.408112403157341,groupA
6.408112403157341,groupA
6.408112403157341,groupB
6.408112403157341,groupB
6.408112403157341,groupA
6.408112403157341,groupA
6.408112403157341,groupA
6.408112403157341,groupA
6.408112403157341,groupB
6.408112403157341,groupB
6.408112403157341,groupA
6.408112403157341,groupA
6.408112403157341,groupA
6.408112403157341,groupB
6.408112403157341,groupA
6.408112403157341,groupB
6.408112403157341,groupA
6.408112403157341,groupA
6.408112403157341,groupA
6.408112403157341,groupB
6.408112403157341,groupA
6.408112403157341,groupB
6.408112403157341,groupA
6.408112403157341,groupB
6.408112403157341,groupA
6.408112403157341,groupB
6.408112403157341,groupB
6.408112403157341,groupB
6.408112403157341,groupA
6.408112403157341,groupB
6.408112403157341,groupA
6.408112403157341,groupB
6.408112403157341,groupB
6.408112403157341,groupB
6.408112403157341,groupB
6.408112403157341,groupB
6.408112403157341,groupB
6.408112403157341,groupA
6.408112403157341,groupA
6.408112403157341,groupA
6.408112403157341,groupB
6.408112403157341,groupB
6.408112403157341,groupB
6.408112403157341,groupB
6.408112403157341,groupB
6.408112403157341,groupA
6.408112403157341,groupA
6.408112403157341,groupA
6.408112403157341,groupB
6.408112403157341,groupA
6.408112403157341,groupB
6.408112403157341,groupB
6.408112403157341,groupB
6.408112403157341,groupB
6.408112403157341,groupA
6.408112403157341,groupB
6.408112403157341,groupB
6.408112403157341,groupA
6.408112403157341,groupB
6.408112403157341,groupB
6.408112403157341,groupA
6.408112403157341,groupB
6.408112403157341,groupB
6.408112403157341,groupB
6.408112403157341,groupB
6.408112403157341,groupA
6.408112403157341,groupB
6.408112403157341,groupB
6.408112403157341,groupB
6.408112403157341,groupB
6.408112403157341,groupA
6.408112403157341,groupB
6.408112403157341,groupA
6.408112403157341,groupB
6.408112403157341,groupB
6.408112403157341,groupA
6.408112403157341,groupB
6.408112403157341,groupB
6.408112403157341,groupA
6.408112403157341,groupB
6.408112403157341,groupB
6.408112403157341,groupB
6.408112403157341,groupB
6.408112403157341,groupA
6.408112403157341,groupA
6.408112403157341,groupB
6.408112403157341,groupB
6.408112403157341,groupB
6.408112403157341,groupB
6.408112403157341,groupB
6.408112403157341,groupB
6.408112403157341,groupB
6.408112403157341,groupB
6.408112403157341,groupB
6.408112403157341,groupB
6.408112403157341,groupA
6.408112403157341,groupB
6.408112403157341,groupB
6.408112403157341,groupA
6.408112403157341,groupB
6.408112403157341,groupB
6.408112403157341,groupB
6.408112403157341,groupB
6.408112403157341,groupB
6.408112403157341,groupB
6.408112403157341,groupB
6.408112403157341,groupB
6.408112403157341,groupB
6.408112403157341,groupA
6.408112403157341,groupB
6.408112403157341,groupB
6.408112403157341,groupB
6.408112403157341,groupA
6.408112403157341,groupB
6.408112403157341,groupB
6.408112403157341,groupB
6.408112403157341,groupB
6.408112403157341,groupB
6.408112403157341,groupB
6.408112403157341,groupA
6.408112403157341,groupB
6.408112403157341,groupA
6.408112403157341,groupB
6.408112403157341,groupB
6.408112403157341,groupB
6.408112403157341,groupB
6.408112403157341,groupB
6.408112403157341,groupB
6.408112403157341,groupA
6.408112403157341,groupB
6.408112403157341,groupB
6.408112403157341,groupB
6.408112403157341,groupA
6.408112403157341,groupB
6.408112403157341,groupB
6.408112403157341,groupB
6.408112403157341,groupA
6.408112403157341,groupB
6.408112403157341,groupB
6.408112403157341,groupB
6.408112403157341,groupB
6.408112403157341,groupB
6.408112403157341,groupB
6.408112403157341,groupB
6.408112403157341,groupB
6.408112403157341,groupB
6.408112403157341,groupB
6.408112403157341,groupB
6.408112403157341,groupA
6.408112403157341,groupB
6.408112403157341,groupB
6.408112403157341,groupB
6.408112403157341,groupB
6.408112403157341,groupB
6.408112403157341,groupB
6.408112403157341,groupB
6.408112403157341,groupA
6.408112403157341,groupB
6.408112403157341,groupA
6.408112403157341,groupB
6.408112403157341,groupA
6.408112403157341,groupA
6.408112403157341,groupB
6.408112403157341,groupB
6.408112403157341,groupA
6.408112403157341,groupA
6.408112403157341,groupB
6.408112403157341,groupA
6.408112403157341,groupB
6.408112403157341,groupB
6.408112403157341,groupA
6.408112403157341,groupB
6.408112403157341,groupB
6.408112403157341,groupB
6.408112403157341,groupB
6.408112403157341,groupB
6.408112403157341,groupB
6.408112403157341,groupB
6.408112403157341,groupB
6.408112403157341,groupB
6.408112403157341,groupB
6.408112403157341,groupB
6.408112403157341,groupB
6.408112403157341,groupB
6.408112403157341,groupB
6.408112403157341,groupB
6.408112403157341,groupA
6.408112403157341,groupB
6.408112403157341,groupB
6.408112403157341,groupB
6.408112403157341,groupB
6.408112403157341,groupA
6.408112403157341,groupB
6.408112403157341,groupA
6.408112403157341,groupB
6.408112403157341,groupB
6.408112403157341,groupA
6.408112403157341,groupB
6.408112403157341,groupA
6.408112403157341,groupA
6.408112403157341,groupB
6.408112403157341,groupB
6.408112403157341,groupB
6.408112403157341,groupA
6.408112403157341,groupA
6.408112403157341,groupB
6.408112403157341,groupA
6.408112403157341,groupA
6.408112403157341,groupB
6.408112403157341,groupB
6.408112403157341,groupB
6.408112403157341,groupA
6.408112403157341,groupA
6.408112403157341,groupB
6.408112403157341,groupB
6.408112403157341,groupA
6.408112403157341,groupA
6.408112403157341,groupB
6.408112403157341,groupB
6.408112403157341,groupB
6.408112403157341,groupB
6.408112403157341,groupB
6.408112403157341,groupB
6.408112403157341,groupA
6.408112403157341,groupB
6.408112403157341,groupB
6.408112403157341,groupA
6.408112403157341,groupB
6.408112403157341,groupB
6.408112403157341,groupB
6.408112403157341,groupB
6.408112403157341,groupA
6.408112403157341,groupB
6.408112403157341,groupA
6.408112403157341,groupA
6.408112403157341,groupB
6.408112403157341,groupB
6.408112403157341,groupA
6.408112403157341,groupB
6.408112403157341,groupB
6.408112403157341,groupA
6.408112403157341,groupB
6.408112403157341,groupA
6.408112403157341,groupA
6.408112403157341,groupA
6.408112403157341,groupB
6.408112403157341,groupB
6.408112403157341,groupB
6.408112403157341,groupB
6.408112403157341,groupB
6.408112403157341,groupB
6.408112403157341,groupA
6.408112403157341,groupA
6.408112403157341,groupB
6.408112403157341,groupB
6.408112403157341,groupB
6.408112403157341,groupB
6.408112403157341,groupA
6.408112403157341,groupB
6.408112403157341,groupA
6.408112403157341,groupB
6.408112403157341,groupB
6.408112403157341,groupB
6.408112403157341,groupB
6.408112403157341,groupB
6.408112403157341,groupB
6.408112403157341,groupB
6.408112403157341,groupB
6.408112403157341,groupA
6.408112403157341,groupB
6.408112403157341,groupB
6.408112403157341,groupB
6.408112403157341,groupB
6.408112403157341,groupB
6.408112403157341,groupB
6.408112403157341,groupB
6.408112403157341,groupB
6.408112403157341,groupA
6.408112403157341,groupA
6.408112403157341,groupA
6.408112403157341,groupB
6.408112403157341,groupB
6.408112403157341,groupA
6.408112403157341,groupB
6.408112403157341,groupA
6.408112403157341,groupA
6.408112403157341,groupB
6.408112403157341,groupA
6.408112403157341,groupB
6.408112403157341,groupA
6.408112403157341,groupB
6.408112403157341,groupB
6.408112403157341,groupB
6.408112403157341,groupB
6.408112403157341,groupB
6.408112403157341,groupA
6.408112403157341,groupB
6.408112403157341,groupB
6.408112403157341,groupA
6.408112403157341,groupB
6.408112403157341,groupB
6.408112403157341,groupB
6.408112403157341,groupB
6.408112403157341,groupB
6.408112403157341,groupB
6.408112403157341,groupA
6.408112403157341,groupB
6.408112403157341,groupB
6.408112403157341,groupA
6.408112403157341,groupA
6.408112403157341,groupB
6.408112403157341,groupB
6.408112403157341,groupA
6.408112403157341,groupA
6.408112403157341,groupB
6.408112403157341,groupB
6.408112403157341,groupB
6.408112403157341,groupA
6.408112403157341,groupB
6.408112403157341,groupB
6.408112403157341,groupB
6.408112403157341,groupB
6.408112403157341,groupB
6.408112403157341,groupB
6.408112403157341,groupA
6.408112403157341,groupB
6.408112403157341,groupA
6.408112403157341,groupA
6.408112403157341,groupB
6.408112403157341,groupB
6.408112403157341,groupA
6.408112403157341,groupB
6.408112403157341,groupB
6.408112403157341,groupB
6.408112403157341,groupB
6.408112403157341,groupB
6.408112403157341,groupB
6.408112403157341,groupB
6.408112403157341,groupB
6.408112403157341,groupB
6.408112403157341,groupB
6.408112403157341,groupA
6.408112403157341,groupB
6.408112403157341,groupB
6.408112403157341,groupB
6.408112403157341,groupA
6.408112403157341,groupB
6.408112403157341,groupA
6.408112403157341,groupA
6.408112403157341,groupA
6.408112403157341,groupB
6.408112403157341,groupA
6.408112403157341,groupA
6.408112403157341,groupB
6.408112403157341,groupB
6.408112403157341,groupA
6.408112403157341,groupB
6.408112403157341,groupA
6.408112403157341,groupA
6.408112403157341,groupB
6.408112403157341,groupB
6.408112403157341,groupB
6.408112403157341,groupB
6.408112403157341,groupA
6.408112403157341,groupB
6.408112403157341,groupB
6.408112403157341,groupA
6.408112403157341,groupB
6.408112403157341,groupB
6.408112403157341,groupB
6.408112403157341,groupA
6.408112403157341,groupB
6.408112403157341,groupB
6.408112403157341,groupB
6.408112403157341,groupA
6.408112403157341,groupB
6.408112403157341,groupB
6.408112403157341,groupB
6.408112403157341,groupB
6.408112403157341,groupB
6.408112403157341,groupB
6.408112403157341,groupB
6.408112403157341,groupB
6.408112403157341,groupB
6.408112403157341,groupB
6.408112403157341,groupB
6.408112403157341,groupB
6.408112403157341,groupB
6.408112403157341,groupB
6.408112403157341,groupA
6.408112403157341,groupA
6.408112403157341,groupA
6.408112403157341,groupB
6.408112403157341,groupB
6.408112403157341,groupB
6.408112403157341,groupA
6.408112403157341,groupB
6.408112403157341,groupB
6.408112403157341,groupB
6.408112403157341,groupA
6.408112403157341,groupB
6.408112403157341,groupB
6.408112403157341,groupA
6.408112403157341,groupA
6.408112403157341,groupA
6.408112403157341,groupB
6.408112403157341,groupB
6.408112403157341,groupB
6.408112403157341,groupA
6.408112403157341,groupA
6.408112403157341,groupB
6.408112403157341,groupB
6.408112403157341,groupB
6.408112403157341,groupB
6.408112403157341,groupB
6.408112403157341,groupB
6.408112403157341,groupB
6.408112403157341,groupB
6.408112403157341,groupB
6.408112403157341,groupB
6.408112403157341,groupA
6.408112403157341,groupB
6.408112403157341,groupB
6.408112403157341,groupA
6.408112403157341,groupB
6.408112403157341,groupA
6.408112403157341,groupB
6.408112403157341,groupB
6.408112403157341,groupB
6.408112403157341,groupB
6.408112403157341,groupA
6.408112403157341,groupB
6.408112403157341,groupB
6.408112403157341,groupA
6.408112403157341,groupB
6.408112403157341,groupB
6.408112403157341,groupB
6.408112403157341,groupA
6.408112403157341,groupB
6.408112403157341,groupA
6.408112403157341,groupB
6.408112403157341,groupB
6.408112403157341,groupB
6.408112403157341,groupB
6.408112403157341,groupB
6.408112403157341,groupA
6.408112403157341,groupB
6.408112403157341,groupB
6.408112403157341,groupB
6.408112403157341,groupB
6.408112403157341,groupB
6.408112403157341,groupB
6.408112403157341,groupA
6.408112403157341,groupB
6.408112403157341,groupB
6.408112403157341,groupB
6.408112403157341,groupB
6.408112403157341,groupB
6.408112403157341,groupB
6.408112403157341,groupB
6.408112403157341,groupA
6.408112403157341,groupA
6.408112403157341,groupB
6.408112403157341,groupA
6.408112403157341,groupA
6.408112403157341,groupB
6.408112403157341,groupB
6.408112403157341,groupB
6.408112403157341,groupB
6.408112403157341,groupB
6.408112403157341,groupA
6.408112403157341,groupB
6.408112403157341,groupB
6.408112403157341,groupB
6.408112403157341,groupB
6.408112403157341,groupB
6.408112403157341,groupA
6.408112403157341,groupB
6.408112403157341,groupB
6.408112403157341,groupA
6.408112403157341,groupA
6.408112403157341,groupB
6.408112403157341,groupA
6.408112403157341,groupB
6.408112403157341,groupA
6.408112403157341,groupB
6.408112403157341,groupB
6.408112403157341,groupA
6.408112403157341,groupB
6.408112403157341,groupB
6.408112403157341,groupB
6.408112403157341,groupB
6.408112403157341,groupB
6.408112403157341,groupB
6.408112403157341,groupB
6.408112403157341,groupA
6.408112403157341,groupA
6.408112403157341,groupB
6.408112403157341,groupB
6.408112403157341,groupA
6.408112403157341,groupB
6.408112403157341,groupB
6.408112403157341,groupA
6.408112403157341,groupB
6.408112403157341,groupB
6.408112403157341,groupB
6.408112403157341,groupA
6.408112403157341,groupA
6.408112403157341,groupB
6.408112403157341,groupB
6.408112403157341,groupA
6.408112403157341,groupB
6.408112403157341,groupB
6.408112403157341,groupB
6.408112403157341,groupA
6.408112403157341,groupB
6.408112403157341,groupB
6.408112403157341,groupA
6.408112403157341,groupB
6.408112403157341,groupB
6.408112403157341,groupB
6.408112403157341,groupB
6.408112403157341,groupB
6.408112403157341,groupB
6.408112403157341,groupB
6.408112403157341,groupB
6.408112403157341,groupB
6.408112403157341,groupB
6.408112403157341,groupB
6.408112403157341,groupB
6.408112403157341,groupB
6.408112403157341,groupB
6.408112403157341,groupA
6.408112403157341,groupB
6.408112403157341,groupB
6.408112403157341,groupB
6.408112403157341,groupB
6.408112403157341,groupB
6.408112403157341,groupB
6.408112403157341,groupB
6.408112403157341,groupB
6.408112403157341,groupA
6.408112403157341,groupB
6.408112403157341,groupA
6.408112403157341,groupB
6.408112403157341,groupB
6.408112403157341,groupB
6.408112403157341,groupA
6.408112403157341,groupB
6.408112403157341,groupA
6.408112403157341,groupA
6.408112403157341,groupB
6.408112403157341,groupB
6.408112403157341,groupB
6.408112403157341,groupB
6.408112403157341,groupB
6.408112403157341,groupB
6.408112403157341,groupB
6.408112403157341,groupA
6.408112403157341,groupB
6.408112403157341,groupB
6.408112403157341,groupA
6.408112403157341,groupB
6.408112403157341,groupA
6.408112403157341,groupB
6.408112403157341,groupA
6.408112403157341,groupA
6.408112403157341,groupB
6.408112403157341,groupB
6.408112403157341,groupA
6.408112403157341,groupB
6.408112403157341,groupB
6.408112403157341,groupB
6.408112403157341,groupA
6.408112403157341,groupB
6.408112403157341,groupB
6.408112403157341,groupB
6.408112403157341,groupB
6.408112403157341,groupB
6.408112403157341,groupB
6.408112403157341,groupA
6.408112403157341,groupA
6.408112403157341,groupB
6.408112403157341,groupA
6.408112403157341,groupB
6.408112403157341,groupB
6.408112403157341,groupB
6.408112403157341,groupB
6.408112403157341,groupB
6.408112403157341,groupB
6.408112403157341,groupB
6.408112403157341,groupB
6.408112403157341,groupB
6.408112403157341,groupB
6.408112403157341,groupB
6.408112403157341,groupB
6.408112403157341,groupB
6.408112403157341,groupB
6.408112403157341,groupB
6.408112403157341,groupA
6.408112403157341,groupB
6.408112403157341,groupA
6.408112403157341,groupA
6.408112403157341,groupA
6.408112403157341,groupA
6.408112403157341,groupB
6.408112403157341,groupA
6.408112403157341,groupB
6.408112403157341,groupB
6.408112403157341,groupB
6.408112403157341,groupB
6.408112403157341,groupA
6.408112403157341,groupA
6.408112403157341,groupB
6.408112403157341,groupB
6.408112403157341,groupB
6.408112403157341,groupB
6.408112403157341,groupB
6.408112403157341,groupB
6.408112403157341,groupA
6.408112403157341,groupA
6.408112403157341,groupB
6.408112403157341,groupB
6.408112403157341,groupB
6.408112403157341,groupB
6.408112403157341,groupB
6.408112403157341,groupB
6.408112403157341,groupB
6.408112403157341,groupB
6.408112403157341,groupB
6.408112403157341,groupB
6.408112403157341,groupB
6.408112403157341,groupA
6.408112403157341,groupA
6.408112403157341,groupB
6.408112403157341,groupB
6.408112403157341,groupA
6.408112403157341,groupB
6.408112403157341,groupB
6.408112403157341,groupB
6.408112403157341,groupB
6.408112403157341,groupB
6.408112403157341,groupA
6.408112403157341,groupA
6.408112403157341,groupA
6.408112403157341,groupA
6.408112403157341,groupA
6.408112403157341,groupB
6.408112403157341,groupB
6.408112403157341,groupB
6.408112403157341,groupB
6.408112403157341,groupB
6.408112403157341,groupA
6.408112403157341,groupB
6.408112403157341,groupB
6.408112403157341,groupB
6.408112403157341,groupB
6.408112403157341,groupA
6.408112403157341,groupB
6.408112403157341,groupB
6.408112403157341,groupB
6.408112403157341,groupA
6.408112403157341,groupA
6.408112403157341,groupB
6.408112403157341,groupB
6.408112403157341,groupB
6.408112403157341,groupB
6.408112403157341,groupA
6.408112403157341,groupB
6.408112403157341,groupB
6.408112403157341,groupA
6.408112403157341,groupB
6.408112403157341,groupA
6.408112403157341,groupA
6.408112403157341,groupB
6.408112403157341,groupB
6.408112403157341,groupA
6.408112403157341,groupA
6.408112403157341,groupB
6.408112403157341,groupB
6.408112403157341,groupB
6.408112403157341,groupB
6.408112403157341,groupB
6.408112403157341,groupB
6.408112403157341,groupB
6.408112403157341,groupB
6.408112403157341,groupB
6.408112403157341,groupA
6.408112403157341,groupB
6.408112403157341,groupB
6.408112403157341,groupB
6.408112403157341,groupB
6.408112403157341,groupB
6.408112403157341,groupA
6.408112403157341,groupA
6.408112403157341,groupA
6.408112403157341,groupB
6.408112403157341,groupA
6.408112403157341,groupB
6.408112403157341,groupB
6.408112403157341,groupA
6.408112403157341,groupB
6.408112403157341,groupB
6.408112403157341,groupB
6.408112403157341,groupA
6.408112403157341,groupB
6.408112403157341,groupA
6.408112403157341,groupB
6.408112403157341,groupB
6.408112403157341,groupA
6.408112403157341,groupB
6.408112403157341,groupB
6.408112403157341,groupB
6.408112403157341,groupB
6.408112403157341,groupB
6.408112403157341,groupA
6.408112403157341,groupB
6.408112403157341,groupB
6.408112403157341,groupB
6.408112403157341,groupB
6.408112403157341,groupB
6.408112403157341,groupA
6.408112403157341,groupB
6.408112403157341,groupA
6.408112403157341,groupA
6.408112403157341,groupB
6.408112403157341,groupB
6.408112403157341,groupB
6.408112403157341,groupA
6.408112403157341,groupB
6.408112403157341,groupB
6.408112403157341,groupB
6.408112403157341,groupA
6.408112403157341,groupB
6.408112403157341,groupB
6.408112403157341,groupA
6.408112403157341,groupB
6.408112403157341,groupB
6.408112403157341,groupB
6.408112403157341,groupB
6.408112403157341,groupB
6.408112403157341,groupA
6.408112403157341,groupA
6.408112403157341,groupA
6.408112403157341,groupB
6.408112403157341,groupA
6.408112403157341,groupB
6.408112403157341,groupA
6.408112403157341,groupA
6.408112403157341,groupB
6.408112403157341,groupA
6.408112403157341,groupB
6.408112403157341,groupB
6.408112403157341,groupB
6.408112403157341,groupB
6.408112403157341,groupA
6.408112403157341,groupB
6.408112403157341,groupB
6.408112403157341,groupA
6.408112403157341,groupB
6.408112403157341,groupA
6.408112403157341,groupB
6.408112403157341,groupB
6.408112403157341,groupB
6.408112403157341,groupB
6.408112403157341,groupB
6.408112403157341,groupB
6.408112403157341,groupA
6.408112403157341,groupA
6.408112403157341,groupB
6.408112403157341,groupB
6.408112403157341,groupB
6.408112403157341,groupB
6.408112403157341,groupB
6.408112403157341,groupB
6.408112403157341,groupB
6.408112403157341,groupB
6.408112403157341,groupB
6.408112403157341,groupA
6.408112403157341,groupB
6.408112403157341,groupB
6.408112403157341,groupB
6.408112403157341,groupA
6.408112403157341,groupB
6.408112403157341,groupB
6.408112403157341,groupA
6.408112403157341,groupB
6.408112403157341,groupB
6.408112403157341,groupB
6.408112403157341,groupB
6.408112403157341,groupB
6.408112403157341,groupB
6.408112403157341,groupB
6.408112403157341,groupB
6.408112403157341,groupB
6.408112403157341,groupA
6.408112403157341,groupB
6.408112403157341,groupA
6.408112403157341,groupB
6.408112403157341,groupB
6.408112403157341,groupA
6.408112403157341,groupB
6.408112403157341,groupA
6.408112403157341,groupB
6.408112403157341,groupA
6.408112403157341,groupB
6.408112403157341,groupB
6.408112403157341,groupB
6.408112403157341,groupB
6.408112403157341,groupA
6.408112403157341,groupB
6.408112403157341,groupB
6.408112403157341,groupB
6.408112403157341,groupB
6.408112403157341,groupA
6.408112403157341,groupB
6.408112403157341,groupB
6.408112403157341,groupA
6.408112403157341,groupB
6.408112403157341,groupB
6.408112403157341,groupA
6.408112403157341,groupA
6.408112403157341,groupB
6.408112403157341,groupB
6.408112403157341,groupB
6.408112403157341,groupB
6.408112403157341,groupA
6.408112403157341,groupB
6.408112403157341,groupB
6.408112403157341,groupB
6.408112403157341,groupB
6.408112403157341,groupB
6.408112403157341,groupB
6.408112403157341,groupA
6.408112403157341,groupB
6.408112403157341,groupB
6.408112403157341,groupB
6.408112403157341,groupA
6.408112403157341,groupB
6.408112403157341,groupA
6.408112403157341,groupA
6.408112403157341,groupA
6.408112403157341,groupA
6.408112403157341,groupB
6.408112403157341,groupA
6.408112403157341,groupB
6.408112403157341,groupA
6.408112403157341,groupB
6.408112403157341,groupB
6.408112403157341,groupA
6.408112403157341,groupB
6.408112403157341,groupB
6.408112403157341,groupB
6.408112403157341,groupB
6.408112403157341,groupB
6.408112403157341,groupB
6.408112403157341,groupB
6.408112403157341,groupB
6.408112403157341,groupB
6.408112403157341,groupA
6.408112403157341,groupB
6.408112403157341,groupA
6.408112403157341,groupB
6.408112403157341,groupB
6.408112403157341,groupB
6.408112403157341,groupB
6.408112403157341,groupB
6.408112403157341,groupA
6.408112403157341,groupB
6.408112403157341,groupB
6.408112403157341,groupB
6.408112403157341,groupB
6.408112403157341,groupA
6.408112403157341,groupB
6.408112403157341,groupA
6.408112403157341,groupB
6.408112403157341,groupB
6.408112403157341,groupB
6.408112403157341,groupB
6.408112403157341,groupA
6.408112403157341,groupA
6.408112403157341,groupA
6.408112403157341,groupB
6.408112403157341,groupB
6.408112403157341,groupB
6.408112403157341,groupB
6.408112403157341,groupB
6.408112403157341,groupA
6.408112403157341,groupA
6.408112403157341,groupB
6.408112403157341,groupA
6.408112403157341,groupB
6.408112403157341,groupB
6.408112403157341,groupB
6.408112403157341,groupA
6.408112403157341,groupB
6.408112403157341,groupB
6.408112403157341,groupB
6.408112403157341,groupA
6.408112403157341,groupA
6.408112403157341,groupA
6.408112403157341,groupB
6.408112403157341,groupB
6.408112403157341,groupB
6.408112403157341,groupB
6.408112403157341,groupB
6.408112403157341,groupB
6.408112403157341,groupB
6.408112403157341,groupB
6.408112403157341,groupB
6.408112403157341,groupB
6.408112403157341,groupB
6.408112403157341,groupA
6.408112403157341,groupB
6.408112403157341,groupA
6.408112403157341,groupB
6.408112403157341,groupA
6.408112403157341,groupB
6.408112403157341,groupA
6.408112403157341,groupB
6.408112403157341,groupA
6.408112403157341,groupB
6.408112403157341,groupB
6.408112403157341,groupB
6.408112403157341,groupB
6.408112403157341,groupB
6.408112403157341,groupB
6.408112403157341,groupB
6.408112403157341,groupB
6.408112403157341,groupB
6.408112403157341,groupA
6.408112403157341,groupB
6.408112403157341,groupB
6.408112403157341,groupA
6.408112403157341,groupB
6.408112403157341,groupA
6.408112403157341,groupA
6.408112403157341,groupB
6.408112403157341,groupB
6.408112403157341,groupB
6.408112403157341,groupB
6.408112403157341,groupA
6.408112403157341,groupB
6.408112403157341,groupB
6.408112403157341,groupB
6.408112403157341,groupB
6.408112403157341,groupB
6.408112403157341,groupA
6.408112403157341,groupB
6.408112403157341,groupB
6.408112403157341,groupB
6.408112403157341,groupB
6.408112403157341,groupB
6.408112403157341,groupB
6.408112403157341,groupB
6.408112403157341,groupA
6.408112403157341,groupA
6.408112403157341,groupB
6.408112403157341,groupB
6.408112403157341,groupA
6.408112403157341,groupB
6.408112403157341,groupB
6.408112403157341,groupB
6.408112403157341,groupB
6.408112403157341,groupB
6.408112403157341,groupA
6.408112403157341,groupB
6.408112403157341,groupB
6.408112403157341,groupB
6.408112403157341,groupB
6.408112403157341,groupB
6.408112403157341,groupB
6.408112403157341,groupB
6.408112403157341,groupB
6.408112403157341,groupA
6.408112403157341,groupB
6.408112403157341,groupB
6.408112403157341,groupB
6.408112403157341,groupB
6.408112403157341,groupB
6.408112403157341,groupB
6.408112403157341,groupB
6.408112403157341,groupA
6.408112403157341,groupB
6.408112403157341,groupA
6.408112403157341,groupB
6.408112403157341,groupB
6.408112403157341,groupB
6.408112403157341,groupA
6.408112403157341,groupA
6.408112403157341,groupB
6.408112403157341,groupB
6.408112403157341,groupB
6.408112403157341,groupB
6.408112403157341,groupB
6.408112403157341,groupB
6.408112403157341,groupB
6.408112403157341,groupA
6.408112403157341,groupA
6.408112403157341,groupB
6.408112403157341,groupB
6.408112403157341,groupB
6.408112403157341,groupB
6.408112403157341,groupA
6.408112403157341,groupB
6.408112403157341,groupB
6.408112403157341,groupB
6.408112403157341,groupB
6.408112403157341,groupB
6.408112403157341,groupA
6.408112403157341,groupB
6.408112403157341,groupB
6.408112403157341,groupB
6.408112403157341,groupB
6.408112403157341,groupA
6.408112403157341,groupB
6.408112403157341,groupA
6.408112403157341,groupB
6.408112403157341,groupB
6.408112403157341,groupB
6.408112403157341,groupA
6.408112403157341,groupB
6.408112403157341,groupB
6.408112403157341,groupB
6.408112403157341,groupB
6.408112403157341,groupA
6.408112403157341,groupB
6.408112403157341,groupB
6.408112403157341,groupB
6.408112403157341,groupA
6.408112403157341,groupB
6.408112403157341,groupB
