@relation 'UnivariateSEA'
@attribute feature1 numeric
@attribute class {groupA,groupB}
@data
6.588672394716129,groupB
9.398653887819098,groupB
9.139628760146802,groupB
1.1596708803265776,groupA
7.6167469290199925,groupB
8.052277714737137,groupB
7.050099543038414,groupB
5.771002613742765,groupA
0.012985767526091374,groupA
5.403970647837965,groupB
8.456556680441219,groupA
8.89908751655377,groupB
2.2880198240040297,groupA
2.0673750736050733,groupA
2.9073219661731207,groupA
6.304048639228538,groupB
1.1667030198550488,groupA
9.624145927337464,groupB
8.011570655624329,groupB
6.9900662243448055,groupB
1.7437109686467622,groupA
8.363149477563287,groupB
6.544260178683681,groupB
7.070442260539652,groupB
1.3961380948493218,groupA
1.2367122850292422,groupB
0.6344924296656074,groupA
0.7302602021384397,groupA
3.533391893503619,groupA
5.986324882746571,groupA
5.3976186250497,groupB
7.298239289350995,groupB
3.3865529093816504,groupB
7.638204881746642,groupB
6.304712233889196,groupB
9.072811901181929,groupB
8.540497770565885,groupB
0.24472129835244494,groupA
1.3106811310712574,groupA
7.433696227652655,groupB
0.0835172996654876,groupA
8.805986697893163,groupB
2.5596265129217874,groupA
3.786228753606087,groupB
7.975630575736324,groupB
6.670733531962961,groupB
5.472240204409619,groupA
5.127188233824031,groupB
4.496849096485467,groupA
7.77950272380208,groupB
9.657951145846166,groupB
1.302219280116259,groupA
9.002531402702127,groupB
7.237512084322349,groupB
5.690815813063681,groupB
6.379468960547,groupB
3.3506904939437954,groupB
3.7194051348653154,groupB
0.9932129480311946,groupA
0.7436137629811046,groupA
1.5354801279535624,groupB
6.912259325002928,groupB
3.3793499461756826,groupB
3.4898138772155587,groupA
6.615555820426838,groupB
6.864305832800729,groupB
1.0593599125441477,groupB
8.15770241451412,groupB
8.912893764628846,groupB
6.961128822508109,groupA
6.775947514712604,groupB
4.699535995042926,groupB
8.717937212122447,groupA
1.0037536978542638,groupB
2.264570758894735,groupA
9.451020901929118,groupB
5.005414178749712,groupB
8.187796102262062,groupB
8.264130598391663,groupB
4.613827089519154,groupB
5.670332023034996,groupA
8.82235198222148,groupB
8.070985709019489,groupB
2.929819962005631,groupB
9.857786921121356,groupB
2.4928496501916895,groupB
7.181457847851505,groupB
9.611818478109091,groupB
5.499313036463914,groupA
8.64376433147161,groupB
3.3072236019363945,groupA
6.696159391389869,groupB
5.1923551232147345,groupA
4.783721386416097,groupB
5.218259190477532,groupB
8.519218162609063,groupB
7.171533347956699,groupB
7.714686576756621,groupB
3.057186399674724,groupA
6.432766185523678,groupA
0.01799710549873823,groupA
9.344963074024069,groupB
9.40861746610139,groupB
5.819829326567416,groupB
5.727322052251641,groupB
7.217686739169311,groupB
9.272796027098238,groupB
5.330504538112962,groupA
5.191866616300774,groupB
5.296246866520944,groupB
7.803625719542454,groupA
2.6217089051868148,groupA
8.528790547152974,groupB
7.688143887265757,groupA
9.189948108139157,groupB
0.0705024322089165,groupA
4.072296814166157,groupA
4.720549021179022,groupA
5.192339993959397,groupB
9.47067959880486,groupB
9.414138177085075,groupB
0.43435042070922525,groupA
1.7461078751635106,groupA
4.868691581400654,groupB
4.379751357610284,groupA
4.437553346266209,groupA
0.698730367058441,groupA
4.918359513022691,groupB
4.122107561276946,groupB
0.9211602615295178,groupA
7.504614740649318,groupB
9.623710093623833,groupB
4.048723537185194,groupB
8.227389827316095,groupB
5.733335218509955,groupB
4.503830711608291,groupB
1.6103112734575808,groupA
3.8764033804338127,groupA
4.0849013468916615,groupA
8.179828428638071,groupB
1.2069929545770608,groupA
0.5773993228675156,groupA
9.61620180006584,groupB
6.49751467314173,groupB
1.8384106568896474,groupA
7.115609604188662,groupA
2.7794730322620778,groupA
8.62475949901677,groupB
5.459671173755193,groupB
5.729698409313607,groupB
1.213098826643887,groupA
3.382782939863087,groupA
1.2218968222754811,groupA
1.7544140930597707,groupA
2.907639787050381,groupA
9.38791489544405,groupB
4.383982029368994,groupB
6.949890761208142,groupA
8.139867823452253,groupB
1.6152792093097845,groupB
2.2844913656061463,groupB
0.5893456450542967,groupA
8.512623758455915,groupA
2.6878773097008124,groupB
5.556733347985416,groupB
0.517352547113149,groupB
0.4901761569354224,groupA
6.701884266609721,groupA
4.046944246938907,groupA
3.9765264802131672,groupA
7.252815326531689,groupA
0.5985558055055706,groupB
0.5399609606413291,groupA
6.955100261139812,groupB
3.6298223530864226,groupA
6.080708547033209,groupA
4.387277364843739,groupA
3.5241403205993493,groupB
3.7695845440782705,groupB
8.661701576376263,groupB
3.0412335562539115,groupA
8.472319467898354,groupA
4.376138813684466,groupA
8.660449648669932,groupB
4.992285273345878,groupA
8.338353813875617,groupB
9.433201966945575,groupB
7.569155789446419,groupA
8.943625264800916,groupB
6.485221319908022,groupB
6.843920944924097,groupA
7.191903634875389,groupA
3.5923703944800147,groupA
6.42370479947377,groupB
7.175054688677056,groupB
4.971413211443487,groupB
1.0663832241780091,groupA
6.4119619666293834,groupB
8.389710196663737,groupA
7.896377671063152,groupB
6.931556297853252,groupA
5.137798692256847,groupB
4.108494007593037,groupB
6.93978261625237,groupB
6.370821297822433,groupB
8.7049467071756,groupB
2.4241446030365177,groupA
0.9651955257979183,groupA
1.371787956795748,groupA
9.336481508278121,groupB
5.822283938401362,groupB
2.0176287913039017,groupA
7.867002678998189,groupB
5.28891152275464,groupA
3.38747857056072,groupA
5.67145115365194,groupB
6.165393689864342,groupA
4.019488208012847,groupA
4.5997645365668784,groupB
0.14188741814419759,groupA
7.705274333469351,groupB
9.215758219231779,groupB
9.896271775776555,groupB
4.899609031812223,groupA
7.25184767049305,groupB
9.897892719862565,groupA
9.373482105514558,groupB
3.9992438132249317,groupB
1.852742017580895,groupB
2.4271955493017803,groupB
4.969632461055356,groupA
5.900510098847382,groupA
6.944740247907777,groupB
5.353510038714654,groupB
7.969182917306635,groupB
1.6020685679149838,groupA
0.3582876675361246,groupB
2.033814371168927,groupB
7.3312888007957335,groupB
7.018791624224882,groupA
7.07212826944887,groupB
6.746736966112323,groupA
2.1247030465487904,groupB
6.027414525516372,groupB
0.5007417187194274,groupB
9.474308630012114,groupB
5.059160950331116,groupA
4.016683618319018,groupA
0.018198383116141414,groupA
0.9531382069579186,groupB
2.888428898082412,groupB
1.3580674951172222,groupB
3.093348666609498,groupA
9.311125007247727,groupA
2.3169862332136337,groupA
4.432596620233432,groupB
3.686450810860059,groupA
9.370417123853095,groupB
8.308647723253623,groupB
2.8978645498675224,groupB
4.8836684153165555,groupA
5.2489113789475965,groupB
1.5529517963152262,groupA
4.164870792162189,groupB
2.664369217544462,groupB
1.4362365496982932,groupB
6.819240413088858,groupA
4.704181784505899,groupA
2.341579505238988,groupA
0.22969901570390028,groupA
7.38816945500772,groupB
7.160506306615295,groupB
8.81681073067886,groupA
7.933687934064627,groupB
8.40881695164146,groupB
8.388703446017072,groupB
4.169064706552515,groupA
5.163848938902826,groupB
4.443225850626381,groupB
6.715653149659646,groupB
0.17011548091703688,groupB
0.03502409934864281,groupB
1.5295320320718186,groupB
3.983287642919122,groupB
1.5939696276015236,groupB
6.998353010630244,groupB
9.563926604082543,groupB
5.459083370714306,groupB
7.271202895384661,groupB
9.145614328122301,groupB
6.758455508544442,groupB
6.450945598273475,groupA
6.9259499902439545,groupB
1.404173125580347,groupA
9.307746883507612,groupB
0.591832226863197,groupA
1.215682252342073,groupA
5.1588942160191875,groupB
8.46852343684886,groupB
0.14265342721800245,groupA
1.9563286461257967,groupB
8.381869923901823,groupB
6.140389299137945,groupB
1.3956384501358787,groupA
7.236276173949594,groupA
6.719422286284696,groupB
3.1977225968279455,groupB
8.158919330772616,groupB
8.574608885817511,groupB
0.5398570301119554,groupA
1.5672432790658442,groupA
7.399774219579955,groupB
2.12761842247164,groupA
6.514972940035318,groupB
8.024313317024285,groupB
4.170736244961564,groupB
4.452896489643852,groupB
3.6921914209703885,groupB
1.3874253989990892,groupB
7.910301649814667,groupB
2.855753346050298,groupB
7.479935166768864,groupA
4.062529370099996,groupA
0.7877460628228006,groupA
6.815507282841625,groupA
7.752889588657215,groupB
7.408479591508779,groupB
6.857753771378694,groupA
7.4604313580244686,groupB
2.091102518155493,groupA
9.187337243695978,groupB
1.0321474182576806,groupB
7.164547203855508,groupA
2.6713367342804153,groupB
1.297696813836361,groupA
1.1086832301625194,groupB
7.805556670179511,groupB
6.673278497230012,groupB
0.27847680442811606,groupB
7.885088128403197,groupB
9.373269232778993,groupA
9.358437814074808,groupB
9.771412563055437,groupB
5.51348062883438,groupA
6.867916079527166,groupA
5.805940862536189,groupB
8.643146329064997,groupB
1.2179735325536378,groupA
2.787526569434414,groupB
9.195729965487592,groupA
6.036525555745682,groupB
4.027314369698632,groupB
1.0765738101227473,groupA
8.533544155330558,groupB
2.8333346924087377,groupA
1.7043417184044718,groupA
0.8916580716645561,groupA
7.799763825868858,groupB
0.2988751821464719,groupA
3.242999489992849,groupB
0.7250931478249423,groupA
8.130861927290855,groupB
0.8179457522859113,groupA
7.528641915545324,groupB
4.698658077916167,groupB
9.231628226714793,groupA
2.2410035048088606,groupA
2.614052833340683,groupA
8.676002729820185,groupB
0.6611001339649081,groupA
8.40149869788522,groupB
1.8664712599977729,groupA
8.315493575761106,groupA
5.796583553842021,groupA
0.6472200298693254,groupA
4.5231489389421045,groupB
9.461695601641914,groupB
4.488345302998214,groupB
2.900329288916521,groupA
7.206518087532526,groupB
2.1129569091566482,groupB
5.971333938625069,groupB
9.816779168832344,groupB
7.165641246009197,groupB
7.458214650921557,groupA
3.267231378901095,groupA
0.39386065872412224,groupA
6.617666534598192,groupA
6.595445632170957,groupB
8.826557008372271,groupB
9.056362885521088,groupB
3.9697671847689353,groupB
4.068141004387238,groupA
8.731543515779762,groupB
1.3626461675901724,groupA
2.0354215697077596,groupA
7.419588313146178,groupB
7.579882835982779,groupB
0.380966971167801,groupA
4.964608688682567,groupA
9.796070032269677,groupB
6.839803929375886,groupA
3.2065339188231787,groupA
5.550013409885017,groupB
9.051642410437674,groupB
7.61959363998394,groupB
0.5776629801248045,groupA
8.133833701537046,groupB
7.734925887749125,groupB
1.5097118295289347,groupA
9.00544138315828,groupB
1.524247666211872,groupB
1.2821087733689296,groupA
5.481891520023096,groupB
6.999610035132911,groupB
2.357697281584741,groupA
0.3036258460565511,groupA
4.284635539724548,groupA
9.941866120045805,groupA
5.1523650752803585,groupB
9.232027780169258,groupB
4.84466454377506,groupB
1.858078410130447,groupA
8.047730836780893,groupB
1.0863808109412998,groupA
5.824191794626586,groupA
4.048403778269494,groupB
6.791884512170322,groupB
3.588925534929328,groupB
3.6182537986209837,groupA
7.368134921384216,groupB
7.018007377369396,groupB
8.321172611660572,groupB
6.097261063774143,groupB
6.375181756796206,groupB
1.0586004095175094,groupA
3.6014094624896265,groupB
2.668806148958679,groupB
3.879032876598888,groupB
9.513816943842965,groupB
5.969724142707867,groupA
4.5796323731497885,groupA
5.2912598188835265,groupA
5.270610842874981,groupB
0.8399151843148767,groupA
1.60237419843405,groupA
5.083240239113892,groupA
3.6330445936045463,groupA
2.3735381953100374,groupB
9.619782560109883,groupB
6.440687892505416,groupB
3.360458083334188,groupA
6.897130648693062,groupA
0.36800364730729784,groupA
8.548430995501406,groupB
0.627495180054578,groupA
5.260349134166664,groupB
7.435138915333146,groupB
9.868052367575007,groupB
8.84516176466859,groupB
3.0551352993952086,groupA
7.205624090214286,groupA
6.154650360359128,groupB
8.760857911578867,groupB
5.31259482492474,groupB
5.937488600147307,groupB
7.009984074143637,groupB
3.8521325043813484,groupA
4.48730694643748,groupA
3.6696424515425963,groupA
7.544263038298817,groupB
8.52696766344275,groupB
8.644285891369902,groupA
6.76003612696955,groupB
2.6182397724221937,groupA
0.5446528255741301,groupA
5.791569633009371,groupB
6.101709183992102,groupA
0.40517697785982354,groupB
3.09645676459944,groupA
1.3549089359840794,groupA
0.4699326626140443,groupA
2.23661096161627,groupA
6.573820728923372,groupB
8.567563398507941,groupB
0.006213925802862619,groupA
4.308231058520558,groupB
9.861862184701232,groupB
6.838772890168014,groupB
4.998932247771588,groupA
8.598054202806924,groupB
7.404546909511399,groupB
5.353841966328248,groupA
9.29963614500768,groupB
9.907522194444894,groupB
1.8906922449828845,groupA
8.725468286116675,groupB
5.811155617914511,groupA
0.24007744156032684,groupA
5.521407565007399,groupA
7.53221037974825,groupA
6.359964051759278,groupA
2.5878389771413355,groupA
1.9729163242309233,groupA
9.211875842459392,groupB
8.250773188083723,groupB
2.7555567105889365,groupB
9.615852240486301,groupB
7.784838424791879,groupA
1.194964628401436,groupA
9.106262978656453,groupB
6.763794152705673,groupB
4.118428263939922,groupB
7.8737431545567995,groupA
7.402802008997325,groupA
5.889473148800235,groupB
0.35579572489522593,groupB
8.878171347019308,groupB
7.4253814882021,groupA
4.274911758923183,groupA
2.262093101266107,groupA
3.3665734714373996,groupA
3.292824744231332,groupA
8.578740565449305,groupB
4.722173020279524,groupA
3.669033005079254,groupB
3.77345521944633,groupB
4.6557470032588455,groupB
7.685809818187708,groupA
8.891401437481619,groupB
8.053407515807079,groupB
7.714818041880228,groupA
0.3209686891638641,groupA
5.938742326859319,groupA
6.992269514595588,groupB
1.8350401067183653,groupA
8.918882507991844,groupA
8.37051071868247,groupB
7.738712053031902,groupB
8.97777074747052,groupB
1.706435839783228,groupA
4.165846535455908,groupA
8.44628983857943,groupB
2.1556945570045483,groupA
9.765090411114084,groupB
3.334742372013112,groupA
9.809804845961075,groupB
3.2876830531309595,groupB
4.9285980862069785,groupA
8.845812986593037,groupB
6.167131024270898,groupB
5.638893019107293,groupA
1.125050135900869,groupA
8.50907193679739,groupB
3.2556176776125456,groupA
2.495906614410457,groupB
7.027163040085279,groupB
8.176311569626524,groupB
4.495245973606684,groupA
5.952560383422158,groupB
3.056623476949155,groupA
5.29496466899789,groupB
7.355505585055347,groupB
2.197861142704137,groupB
1.3260747663736705,groupA
6.83504019977541,groupB
5.256122329074126,groupB
6.536261073357677,groupB
0.6619350136103752,groupA
2.7329406577915716,groupA
5.203699866002204,groupA
3.284516306390647,groupA
1.6924600965890657,groupA
9.059509522558516,groupB
3.4711724234434227,groupA
2.6490727559427105,groupB
6.461824734656949,groupB
8.390116198893429,groupB
9.922598275506022,groupB
0.38288166643660304,groupA
9.089744281663135,groupB
5.568275905391065,groupA
9.753890092089842,groupB
2.3589291827441636,groupA
5.678331400222126,groupA
7.916308347924935,groupA
0.4859748152151755,groupA
7.806540402621288,groupB
3.6082236497856366,groupA
0.6306901050345226,groupA
2.87973782456178,groupB
3.6813784850329743,groupA
9.293062847428269,groupB
1.7486280772030915,groupA
0.2548282504416777,groupA
2.04545932629981,groupA
4.697399676780716,groupB
0.7973064146049746,groupA
9.54361998526432,groupB
0.20265747240658216,groupB
2.8840817273102646,groupB
0.6183021873961181,groupA
4.6977368972240985,groupB
4.170017188477181,groupB
1.5528933229996567,groupA
0.44567942158391327,groupA
4.031687231838034,groupA
3.586436145896257,groupA
7.066191064524783,groupA
8.124806937594421,groupB
5.324217202277593,groupA
5.807391587039578,groupB
4.526777048943051,groupB
1.376347400544543,groupB
8.434609317448842,groupA
8.365534221527993,groupB
7.869281853897007,groupB
8.69121271523018,groupA
4.603736469433377,groupB
8.569150331722339,groupB
7.033673415973224,groupB
4.211385172848232,groupB
4.117340729186133,groupB
2.3593757671428772,groupA
2.586658306482791,groupA
2.700972035301862,groupB
1.5746594242679957,groupB
8.967095210950946,groupB
5.71598910575147,groupA
8.302982489626187,groupB
7.435801139265932,groupB
4.934887062742273,groupA
8.510032569196959,groupB
7.540213215999828,groupB
9.966555728348439,groupB
8.950109936477764,groupB
4.6101636710408735,groupB
4.252087644578167,groupB
7.153773010617016,groupB
5.143009997873557,groupA
8.540137148856825,groupB
3.6309254997956684,groupA
9.965935127852333,groupB
6.227967235567854,groupB
6.721834818926307,groupB
8.967228790832417,groupB
7.66372005066326,groupB
2.514943286293805,groupB
8.921677424639833,groupA
8.339253374535554,groupB
1.249616098843369,groupA
8.518751275257296,groupA
3.77133134235621,groupB
7.461205202712561,groupB
0.9531123135697772,groupA
4.991688215371227,groupB
0.29860500484314767,groupA
7.879443496905305,groupB
8.591574123307147,groupB
1.7647585875208682,groupB
1.9119222658664226,groupA
8.288422720376369,groupB
1.2832414806110293,groupA
1.0874223851209108,groupA
3.920463139632343,groupA
8.007818553718035,groupB
2.21825918234427,groupB
4.207439708974421,groupB
7.951769650882183,groupB
0.6682197729873629,groupA
9.760392802276911,groupA
6.951677324245783,groupB
0.15281812263163386,groupA
8.412475203768743,groupB
3.1440104900370267,groupA
5.995148414057521,groupA
7.026542831332443,groupA
0.9196098306887779,groupA
1.3796384646036786,groupA
3.4972537000424255,groupA
6.454559905854152,groupB
3.253240276246261,groupA
8.962335426883119,groupB
7.718170640099105,groupA
8.773172247902213,groupB
3.8504522911237715,groupA
4.70940243379418,groupB
4.200258846582142,groupB
6.682113878262298,groupB
1.2927362392088615,groupA
8.00046547282395,groupB
0.9237051648100836,groupB
4.846233190665731,groupA
1.1991256681708684,groupB
4.160338807008793,groupB
0.5555999915390175,groupA
2.965380889286753,groupA
3.4832465087598896,groupA
9.363738146496924,groupB
9.259170997210802,groupB
6.096967354153891,groupB
4.11937397457248,groupB
6.744959584893474,groupB
9.485729555709039,groupB
5.472479415212993,groupB
3.7353879977625715,groupA
3.202993940456229,groupA
0.42542466597373374,groupA
2.9009648114635067,groupA
0.029058595711318747,groupB
9.384831215000256,groupB
5.252380914895744,groupB
4.140135051020495,groupA
9.893438446796408,groupB
9.532323683943698,groupB
6.592167445342186,groupB
6.9740455931850045,groupA
5.911139751078773,groupB
9.160059205850487,groupB
7.610493837528556,groupA
9.893825464255793,groupB
6.678483345981921,groupA
5.106134846806016,groupB
4.336028611776722,groupB
7.55689463840736,groupA
0.3602784006611104,groupA
7.421160220158444,groupB
8.07048013092391,groupA
1.0165548957185921,groupB
0.5343812813745197,groupA
6.233650948367475,groupB
4.507514302364873,groupB
9.077520045132987,groupB
5.3110354319924715,groupA
9.396323939993984,groupB
7.199431232227758,groupA
3.1474004890821963,groupA
7.922874525075382,groupB
0.9655997641779512,groupB
7.716214832992584,groupA
1.3166190078455098,groupB
5.463720804700582,groupB
3.8274434825855286,groupA
7.893824143070026,groupB
8.90073304526595,groupB
3.6629967632713756,groupB
6.831979706273595,groupB
2.3443630030504448,groupB
6.704456041300465,groupB
8.941520718756504,groupB
2.256198516356853,groupB
2.4957345673755924,groupA
5.294285704868179,groupB
4.396262898944694,groupA
0.24144223867783032,groupB
9.157044779032768,groupB
2.6688645313318835,groupB
6.667613558937614,groupB
4.856852262194163,groupB
5.5015212869957,groupA
4.059007383836452,groupA
4.182945716337379,groupA
0.7719664453819208,groupA
9.673063036319967,groupB
9.932509151222131,groupB
0.3435604500620004,groupA
9.1753248659525,groupB
8.426396249267752,groupB
1.4759036565876205,groupB
4.596084529040345,groupB
7.8891383866393925,groupB
4.4936563696200675,groupA
0.32355523800754793,groupA
9.740333570119027,groupB
9.784490216639524,groupB
9.140247249802751,groupB
0.6448315776330071,groupA
0.4786861552477806,groupA
9.122493836957943,groupB
2.756984467459774,groupB
0.017406423904071655,groupA
9.280928785806868,groupB
0.7035353004413059,groupA
4.679539390121363,groupA
0.037484853052871525,groupA
4.765915312910361,groupA
7.412022450433616,groupB
4.794488919179935,groupB
6.168194408893326,groupB
1.5985794746954185,groupA
8.45461153407042,groupB
4.16706547048155,groupB
7.82156780980757,groupB
1.4478973197031653,groupA
1.2060692634281756,groupA
6.910942806602611,groupB
6.617210750541086,groupB
1.897173892468359,groupB
1.8429015762397039,groupA
7.035775882836358,groupB
1.7654225357877718,groupB
4.860082589813928,groupA
3.948512128541127,groupA
9.993208811490696,groupB
3.7814951030669377,groupB
1.5205512672899024,groupA
4.946609611361717,groupB
1.2548697673323461,groupA
9.542140992507,groupB
6.036952970798076,groupB
9.837235663942959,groupB
2.37342192318731,groupA
4.929304229956962,groupB
2.154932668904004,groupA
2.391277406354051,groupA
6.695779085722889,groupB
3.949458663101575,groupA
2.8511749223957663,groupB
0.16756032016058686,groupA
2.030523745316839,groupA
1.8402017576011775,groupB
3.543820878770302,groupA
0.7582213838231266,groupB
0.152636128327317,groupA
1.9464897319300711,groupA
0.08413716729629872,groupA
9.19342606687377,groupB
3.809774650109029,groupB
3.3260303295674554,groupA
7.487279724430124,groupA
6.939770231335061,groupB
0.846261946090916,groupA
5.480635286288404,groupB
8.435133008985051,groupB
0.245773389145858,groupA
3.873069683712227,groupB
4.25503499859135,groupA
9.227583149806925,groupB
3.404378740564008,groupB
8.49267212775013,groupA
5.8377529358124765,groupA
7.775283259828846,groupB
1.8417024542049432,groupB
6.063595808697764,groupA
4.5749287114541906,groupA
4.0908020108374465,groupB
1.672582717361426,groupA
0.20654427629362426,groupA
1.6959511945710537,groupA
9.68861172188128,groupB
9.699631022922892,groupB
3.2765628725715956,groupA
1.3717028647123264,groupB
2.4589742988651206,groupA
8.830147735666696,groupB
7.637049936505312,groupB
4.198129797916708,groupB
7.516530438340261,groupB
3.9448166598003773,groupA
1.2734491608822696,groupA
6.229503931959527,groupB
9.79008309667565,groupB
7.617659718342588,groupB
1.7978994895801625,groupB
0.18065897428923283,groupB
8.733300174998565,groupA
1.3462454814991731,groupA
2.6604015826577845,groupA
9.072910655139239,groupB
0.48314457379989406,groupA
8.53619246827183,groupA
0.05541250702129741,groupA
7.205349739263682,groupB
4.528879539374735,groupB
0.17002969967422565,groupA
4.972139070869417,groupB
8.27646285296608,groupA
4.903286473809551,groupB
2.4965776682763794,groupA
7.677866073971275,groupB
1.2391415393871963,groupA
4.961887059515968,groupB
0.16610104916369717,groupA
8.960903905712819,groupB
5.117310144580616,groupB
7.836774644693415,groupB
4.8151993498392045,groupB
5.226339123656874,groupB
9.710689668153986,groupB
4.9692399898360975,groupA
2.324126267670664,groupB
1.2857144176664093,groupA
8.625359812602593,groupB
4.038525684374916,groupB
5.822114450431516,groupA
2.8817137389842995,groupA
9.245306780473756,groupB
6.8803592684924215,groupB
2.341205300008432,groupB
9.830373485943449,groupB
4.5513252201353165,groupB
2.3647199684110873,groupA
9.997703474564995,groupB
3.554456844796837,groupA
8.639478044442013,groupB
8.882652052504746,groupB
8.238065488547502,groupB
9.84938995284041,groupA
9.526585958161748,groupB
4.250706858340475,groupB
4.39193887025901,groupB
8.313248842868832,groupB
3.5834326094812443,groupA
6.12132142162289,groupB
6.242094256467955,groupA
5.049175270658328,groupA
8.529790137867929,groupB
4.9994745451621565,groupB
8.105749458457622,groupB
0.29548827437751335,groupA
0.2750200553728166,groupB
1.7903733442191305,groupA
9.924699968002942,groupA
9.55757599760429,groupB
0.5036421615006548,groupA
7.488533312449262,groupB
7.826854574852836,groupB
6.827148960673752,groupB
0.3904084232712446,groupA
9.683021554379499,groupB
5.637128937966863,groupB
4.518013533876472,groupA
3.3813391674475444,groupB
7.483138223034718,groupB
9.812827196454396,groupB
3.9814201773712368,groupA
9.886884506032093,groupB
7.218519081917115,groupA
2.5330066903318826,groupA
6.765199214931465,groupB
5.885629610029625,groupB
7.761358620309764,groupB
6.3020373223465125,groupA
3.245014255544935,groupA
8.81030131440593,groupB
8.948774978556816,groupA
7.89751651268075,groupB
6.697596268340926,groupB
9.25448538736645,groupB
4.711576661111118,groupA
4.108520789039877,groupA
6.33798196136008,groupB
8.664487551282916,groupB
4.971939290497753,groupB
8.122261132698783,groupB
8.057508703549756,groupB
7.5258992071934925,groupA
5.955575792753197,groupB
5.119703349792331,groupB
1.5473199256388825,groupA
7.972192083857339,groupB
6.541469417796679,groupA
2.471500180517082,groupA
3.8628748469960437,groupA
0.18032359928758623,groupA
0.880461459894899,groupA
2.5663057978358883,groupB
3.1866215934659814,groupB
5.416912754652593,groupA
2.4580233962742772,groupA
0.7795974761612501,groupA
0.2055473928024698,groupA
5.79279544017303,groupA
7.730229052733227,groupA
3.271644986195126,groupB
4.983461188847752,groupB
3.402213034657949,groupA
4.567840966420124,groupB
7.401147051514051,groupB
3.039047743228042,groupB
9.887798625810186,groupB
1.1128775579984895,groupA
4.612933156129882,groupA
8.323165665087611,groupB
2.9999035696187337,groupB
8.865120133844615,groupB
2.1043900822274733,groupA
2.424482314674364,groupB
4.418432048914616,groupA
2.4215394946689353,groupA
5.640073568927245,groupA
7.342075897284829,groupB
4.080729248503575,groupA
0.30720732790307403,groupA
4.1551807554669296,groupA
3.986512964096316,groupB
0.20747388569662628,groupA
2.7481851803053847,groupA
4.697838395584528,groupB
4.865351844263339,groupA
1.930965419077898,groupA
4.500258049249627,groupB
8.582890993948794,groupB
8.551977382755155,groupB
7.291437165872426,groupB
3.3860255245718984,groupA
0.9852036495282779,groupA
6.12383378503435,groupA
3.8555971869571213,groupA
7.899349445945313,groupB
3.551288568520663,groupA
8.101957911349395,groupA
1.3997383071002567,groupB
2.9718251501895585,groupB
4.7610120564035885,groupA
1.0614199065700158,groupA
6.153516672195596,groupB
0.09085549582085073,groupA
4.876567794544709,groupB
9.263798305630559,groupB
7.779606974204917,groupB
2.711912723619453,groupB
0.3680187706336291,groupA
0.8588772175973092,groupA
3.4224416487119713,groupB
7.086221800487449,groupB
8.041344204602781,groupB
4.602776614365193,groupA
6.243388931528832,groupB
1.9657520942910411,groupB
7.8977704637376025,groupB
0.05195189405692302,groupA
8.411025023868733,groupB
3.3551075662563234,groupA
9.547572186718986,groupB
6.9438370642696245,groupA
3.668402201048533,groupA
5.728516043171782,groupB
3.156656301808325,groupA
2.3111052032519575,groupA
1.582885744127377,groupA
2.5621870264795854,groupA
8.132983284498522,groupB
2.8619973128624165,groupA
2.2205280886471845,groupA
3.2591877051916454,groupB
1.618861918040586,groupA
5.577144687398166,groupB
5.192065819284464,groupB
2.645737292704333,groupA
2.2447805709262036,groupA
8.32574029098609,groupB
3.301229399336869,groupA
3.2432827899129837,groupA
0.26484558105990486,groupB
0.8114838211271069,groupB
6.991672310791449,groupB
9.987456394355128,groupB
3.220969873727453,groupB
2.2609111530866532,groupA
8.633710184973763,groupB
5.459376578833032,groupA
1.6043484507367367,groupA
8.121706062303499,groupB
3.70724113848653,groupA
9.9717987819111,groupB
3.873844808857001,groupB
2.5233357595708874,groupB
1.0074388760966357,groupA
1.9361848970492168,groupB
6.7708416926841615,groupA
4.462572814550182,groupA
4.103614933096993,groupB
7.219426371089559,groupA
9.601788345308634,groupB
3.426589073137294,groupB
7.991278253173398,groupB
2.0420362704804704,groupA
9.349700055553509,groupB
8.489559079992796,groupB
5.858897748054969,groupB
8.203218797648372,groupB
3.7746869253149082,groupB
4.567035736238102,groupA
2.403982040252488,groupA
5.841146630564103,groupB
8.565288755688535,groupB
0.4564572414151813,groupB
9.53131602101029,groupB
1.816598388733105,groupA
0.9449024603465284,groupA
7.221473394307907,groupB
3.4968252304951033,groupB
8.38118490563831,groupB
9.60253551190975,groupB
8.30054565925673,groupA
6.664577891932875,groupB
9.762766618145296,groupB
0.42987988356081974,groupA
7.063413114615008,groupB
2.656663231621766,groupA
4.344197195039943,groupB
0.17645065760438672,groupB
5.248266107022886,groupB
7.524588099361328,groupB
8.369768984559043,groupB
8.994115848018854,groupB
0.3522312686120088,groupA
6.97871959151661,groupB
7.698038809284421,groupB
5.988453937778463,groupB
9.401311572205657,groupA
7.095146318418348,groupB
6.6101359240257365,groupA
4.727348112792144,groupB
5.095131692121714,groupB
3.2869230671841088,groupB
4.628032823423018,groupB
3.421249440926469,groupB
1.827474247213241,groupA
5.782516433387829,groupB
1.7151773652107927,groupB
4.772472425137345,groupB
8.965060299162959,groupA
4.095631868366417,groupB
0.10866341532380086,groupA
5.7243884316980544,groupB
6.682566616955726,groupB
3.788524013582397,groupA
3.822831003167005,groupA
7.30082746414109,groupA
1.9784203269891443,groupA
5.61009157005667,groupB
8.992678783817002,groupB
9.030544881148257,groupB
4.829166034481008,groupB
5.309102047588014,groupB
4.584300166692748,groupA
3.064135034681934,groupB
4.094629981807038,groupB
6.153999224893414,groupA
1.4500667158789438,groupA
6.8179216945206775,groupB
1.294902879906441,groupB
0.5999733047296507,groupA
1.5785397613824736,groupB
3.9715208815623537,groupA
5.995281050440198,groupA
1.3910493838585936,groupA
9.981936707246618,groupB
5.89709553813726,groupA
6.727453822133328,groupA
0.523420804922845,groupA
0.7449772588383152,groupA
5.446678682810942,groupA
5.333849061161015,groupB
0.3733664806000181,groupA
1.0644236532177898,groupA
3.6510010255418446,groupA
3.7553594019348644,groupB
9.44986577273814,groupB
2.8436861978730397,groupA
5.814389091465609,groupA
0.7176130501731592,groupA
3.8032324321690436,groupA
8.745306849911701,groupB
5.094638619615096,groupA
0.8532384163595697,groupB
8.335235740777545,groupB
7.188558440605944,groupB
9.647236132207174,groupB
1.591646398260994,groupA
2.9355400802566525,groupA
0.22111557303623575,groupA
9.346492509094093,groupB
8.936923239212268,groupB
0.42987383709885085,groupA
6.572843865774466,groupB
2.8725111818527704,groupB
4.040444462317377,groupB
4.276919890384363,groupA
4.565068831228677,groupA
8.316524095609052,groupB
9.478495327058035,groupB
7.3970022675308575,groupA
1.4177603137604367,groupA
5.4959339448960005,groupA
0.3059504510848432,groupA
1.6534940755657301,groupA
5.356277388726958,groupA
5.81600575127859,groupB
7.43315053910263,groupB
3.6285231894384316,groupA
8.723703945321034,groupB
3.042955343390922,groupB
3.5414582838428266,groupB
3.322741947265766,groupA
5.978214260975668,groupB
2.882343159354729,groupA
7.7092790791788275,groupB
1.2432012834734452,groupA
2.3899146131226514,groupB
0.2500568069011744,groupA
8.979057125823342,groupB
7.595962454124615,groupB
2.8095353087528396,groupA
4.887433378760031,groupA
0.29009918647071475,groupA
7.637041947456713,groupA
5.892281312597674,groupB
0.15759367460536522,groupA
8.283999946751008,groupB
5.916343572698626,groupA
6.422913232216363,groupB
7.9609866970339205,groupB
6.4296303040029565,groupA
1.5279403234645728,groupA
6.170303762949981,groupB
8.562373981043486,groupB
5.402573707865597,groupB
7.503660532840209,groupB
4.237624573007094,groupA
6.410639863048355,groupB
6.59775686437656,groupB
2.1964469088120717,groupA
8.873047388523629,groupB
7.782303931326916,groupB
9.680752791523021,groupB
4.53014397270443,groupB
9.83920563462725,groupB
9.158572446217013,groupB
0.038571857146723065,groupA
0.0717572635278041,groupA
9.850264416090106,groupB
4.8670726492879846,groupB
5.439124234531297,groupB
1.3330669943298246,groupB
4.3845759362370345,groupB
1.7397347179785172,groupA
5.933155115908617,groupB
4.946800616217978,groupB
5.948677099847542,groupB
7.757989663886312,groupB
6.535270545774163,groupA
5.398128320755494,groupA
4.153602170629755,groupB
1.1196774739695226,groupA
7.222386654832661,groupA
0.9285667912806606,groupA
9.784749157534943,groupB
8.45672699905587,groupA
9.728005434125652,groupA
1.7637084638971146,groupB
5.388154607466538,groupA
3.49037424506079,groupB
0.14735377267300898,groupA
4.739579836801116,groupB
8.214098513279573,groupB
5.006860951637584,groupA
1.8785543121895987,groupA
6.099608689718675,groupB
3.0772862524693476,groupA
0.2903132388817464,groupB
5.504357887280658,groupB
6.183685271986082,groupB
2.7040349521269027,groupA
4.023748336447398,groupB
3.1819809030295976,groupA
5.004882154425446,groupB
4.302244332301863,groupA
4.970520988454173,groupB
1.488486709220207,groupB
6.474092668757341,groupB
1.7395306118953358,groupA
2.627410829087755,groupA
1.7178598189292038,groupB
5.047893232169795,groupA
9.147599352963137,groupB
2.4910830717308152,groupB
2.8141649713127768,groupB
1.6938728065103104,groupB
0.7542635261554154,groupA
2.9397473904719105,groupA
3.6423997396746657,groupB
4.737754080934934,groupB
3.014858762433952,groupA
5.1831049997295935,groupB
6.553053661455594,groupB
4.918878992397152,groupA
3.8771984454894692,groupA
3.801525068360566,groupB
8.3149248952677,groupB
5.9697979257017755,groupB
3.442502999714799,groupA
2.448955539237997,groupA
1.819119104775051,groupA
1.4803281854808392,groupA
4.0215020390783796,groupA
3.0462516325397493,groupA
8.559827828655743,groupB
3.5287720229300046,groupB
2.241472724716048,groupA
7.799021811122497,groupB
8.057646609623621,groupB
7.479036023471143,groupA
3.5164120925891273,groupA
9.537163765032856,groupB
3.1108025531291483,groupA
2.961943432741103,groupB
9.897698569908034,groupB
4.936095686298927,groupA
5.259427538038841,groupA
1.9855779946206586,groupA
6.594013481937443,groupA
7.2302107869688905,groupB
1.0673808995575529,groupB
8.550327681545674,groupB
3.7733560556704315,groupB
4.998904735436424,groupA
8.923298965684923,groupB
8.370401972233566,groupB
7.591698740311033,groupB
3.7700526155886935,groupB
6.9144877746368145,groupB
4.20976893280402,groupA
4.656098597018042,groupA
9.66418754664381,groupB
3.029673330911462,groupA
9.905191328721493,groupB
4.7174204648360245,groupB
3.557731196092706,groupA
9.313942263835862,groupB
0.9446087742413345,groupA
7.660601794239224,groupB
9.582107955919097,groupA
5.664642861926421,groupB
9.161539491628636,groupB
8.648671116022664,groupB
9.847817788675757,groupB
7.4725268881103,groupB
4.955205998247684,groupA
3.3793327582089825,groupB
4.582688650706544,groupB
4.248699486701244,groupA
9.80526412594707,groupB
8.097452798624415,groupB
2.239473482320402,groupB
5.424459346218239,groupA
0.6665763336140884,groupA
3.5095323672085255,groupA
1.2413406319757958,groupA
0.5760656863502345,groupA
3.144453482679679,groupB
0.7723268669035122,groupB
4.920007717332867,groupA
7.036795024927768,groupA
2.7989439989186926,groupA
1.9509780069259475,groupB
4.729451634293395,groupB
0.060081922086754336,groupB
0.23660584652785088,groupA
7.904966630980239,groupB
7.201155139311992,groupB
2.9544999023086183,groupA
1.1420057924120586,groupB
7.574174740557006,groupB
5.401387217442873,groupB
4.707049299036257,groupB
3.494982183750893,groupA
3.682457427501152,groupB
1.2574342987628795,groupA
5.047629720121309,groupB
0.9232309263180605,groupA
8.501198329129423,groupA
6.282153006277873,groupB
5.405383219273384,groupA
9.556568558730499,groupA
7.53792010310475,groupB
2.5325912280206673,groupB
4.206259878192108,groupB
0.5765289839648713,groupA
9.821489884791724,groupA
5.520351907606191,groupB
6.118881808425528,groupA
7.68379752737217,groupB
7.3008631320464525,groupB
6.024272880012105,groupA
3.549509501884507,groupA
7.321140899167629,groupB
7.182486642418793,groupB
7.958963657371806,groupB
0.5123697564418861,groupA
5.169455104971278,groupB
4.694995000856789,groupB
6.5887132451425,groupA
1.2732092426481356,groupA
9.25161437351302,groupB
7.650044025749416,groupB
2.251865317413758,groupA
0.4149295885502102,groupA
3.0989555539418703,groupB
1.595054527232993,groupB
3.5263598491239723,groupA
5.456463372191904,groupB
0.6182518684679772,groupB
6.62618828152259,groupB
4.416899901600594,groupB
5.340384684512705,groupB
2.3964426111605297,groupA
5.815551825236479,groupB
9.016003735568889,groupB
7.180561861809718,groupB
4.643423916252019,groupA
5.441810828722151,groupB
5.366690785526714,groupA
3.0366556163611658,groupA
1.3409292152135177,groupA
9.003131203301164,groupB
6.459122516262358,groupA
8.284398608099107,groupB
5.572665752508284,groupA
8.509502091174925,groupB
8.796294475409983,groupB
2.7250585266668126,groupA
1.6859628550247996,groupA
6.440604552290825,groupB
8.477781426469457,groupB
5.9887585035917335,groupB
8.70048259097436,groupB
1.6267905717752629,groupB
6.832167289070853,groupA
5.3175726297428385,groupB
1.1510671135961414,groupA
9.244525624218427,groupB
5.1785810729477255,groupA
8.467535840661268,groupB
3.8393116141917716,groupB
4.162640432500931,groupA
4.059821145131756,groupB
8.464552029315271,groupB
5.375470913616404,groupA
3.5495051150565016,groupB
1.3517794464898136,groupA
3.2271515004176066,groupA
4.116099228642588,groupA
7.440133295448081,groupA
5.94792628922702,groupA
8.787318451965124,groupB
2.4344102866567807,groupB
8.821298431918816,groupA
6.518859325558294,groupB
3.8761390645561153,groupB
8.084469401049414,groupB
9.645838237972018,groupB
5.274513763345995,groupA
9.089511476336327,groupB
7.715545170378903,groupB
8.427020375839106,groupB
4.173448054930625,groupB
0.5250744206202274,groupA
8.931476398410046,groupA
4.051456231536336,groupB
9.93632180220256,groupB
4.718040865574839,groupB
6.337807528116864,groupA
0.014672183852522114,groupA
6.17964168155939,groupB
4.652723649390586,groupA
0.03644867632364934,groupA
2.225898307012415,groupA
7.485215734547273,groupB
0.5589280405341734,groupA
4.367253603751166,groupB
1.1154954212402912,groupA
5.098424369886597,groupA
0.8074890768425946,groupA
1.3054450646961802,groupB
7.246038996373844,groupB
5.886009153077,groupA
8.40527930697068,groupA
8.844267240689637,groupA
6.681492904535082,groupB
1.20701330813061,groupA
4.983937530863631,groupA
5.558365002395368,groupB
3.6819608166494353,groupA
6.327897079867961,groupB
3.624090697363962,groupA
0.08372280666176901,groupA
0.006785277679776103,groupA
2.157603723961461,groupA
2.9223944884127273,groupB
8.786764087512935,groupB
1.3375881179110893,groupA
2.4471095463957893,groupB
0.17553143521653047,groupA
7.84447968103363,groupA
6.655304994736678,groupB
1.5911229533107107,groupB
0.925295896049454,groupA
2.328946393279182,groupA
8.370182525655403,groupA
1.0312776689692194,groupA
4.102812577465675,groupA
5.786851140901513,groupB
2.62864537805078,groupA
8.578251783776324,groupB
7.067185879187391,groupB
8.924919162062046,groupB
6.492254456514073,groupA
2.176401498940699,groupA
7.612691771831183,groupB
6.146452137023482,groupB
3.0567289535068976,groupB
2.5041027416266513,groupA
1.8959604431543842,groupB
8.21730974074542,groupB
6.4770167013117135,groupA
1.955194032370251,groupA
8.806128404184237,groupA
8.750098079883262,groupB
6.180266975075193,groupB
7.944593328486139,groupB
4.881151233565606,groupB
0.5553620893636169,groupA
6.143595163286873,groupA
7.93097172369655,groupB
5.995549347522282,groupA
5.384190525084104,groupB
9.31782723315803,groupB
1.2016861479602414,groupA
5.960751949167751,groupB
0.9376456657641163,groupB
5.390776788551381,groupB
7.314145863634812,groupB
0.35964043392694434,groupA
2.09829255938721,groupB
8.871646118363518,groupB
4.47131645099267,groupA
0.5712943117303593,groupA
7.595124005360305,groupB
3.678163661335505,groupB
9.208767330006761,groupB
6.438533415247686,groupB
8.286365402935328,groupB
5.225148054931273,groupB
5.111957940078171,groupA
1.51657821055743,groupA
2.0697468569520714,groupA
4.621175372151194,groupA
6.2344611893074795,groupA
6.661709129925226,groupA
2.3353935073878462,groupA
5.621473508332965,groupB
6.163429790702196,groupB
1.9386685920814462,groupA
9.684744279821405,groupA
0.0714181761893784,groupA
6.834483046524436,groupA
3.7278930479849324,groupA
9.265904304649093,groupB
3.786131685905093,groupB
0.1346772190730794,groupA
0.5004719763890897,groupA
1.0313191672821198,groupA
2.196524208444618,groupA
7.7935169865709195,groupB
3.220669638036343,groupB
6.1111439569504284,groupB
4.168231385297131,groupA
1.1359091028247736,groupA
2.6724121595049333,groupA
6.5124477439156205,groupA
6.653634312454746,groupB
6.889225257445705,groupB
8.345498563004973,groupB
5.79144042124509,groupB
1.223570420480381,groupA
0.6746075716588418,groupB
0.7364208645140202,groupB
7.088012542392433,groupB
2.9682820343492153,groupB
8.189454152010846,groupB
9.1132650052398,groupB
9.937552136810648,groupB
0.14918633150259653,groupA
9.866571443615545,groupB
9.778671211191847,groupA
5.1565129263523355,groupB
9.685511085329342,groupB
7.282385739068166,groupA
9.67245334774565,groupB
5.501561247360424,groupB
4.902807288542307,groupB
5.432294345980661,groupB
7.538178590292327,groupB
9.98710829504017,groupB
1.752638984917757,groupA
0.6898208447451026,groupA
9.806482797399509,groupB
9.066141316154324,groupB
2.2019649639897176,groupA
8.655615288211637,groupB
2.5115970577509614,groupA
2.2817653725704767,groupB
5.923155680535183,groupB
2.864165620562422,groupA
9.864701868412705,groupB
6.522792507131482,groupA
6.49635989075615,groupB
5.475726715667624,groupA
7.185247023582804,groupB
2.300803151798582,groupA
6.738824699735807,groupB
5.5075861620416,groupA
2.584982853196868,groupA
4.2369017237050075,groupA
0.6434007255006902,groupB
2.0652613586923287,groupA
1.6736071970547106,groupA
5.526133436962537,groupB
0.852135978769698,groupB
7.477187000853757,groupB
0.3928234049792845,groupA
0.9522546468300197,groupA
0.19066161016015104,groupA
3.616318359806412,groupA
7.389212070472725,groupB
9.065022637734163,groupB
1.0938276827762772,groupA
9.25295824518734,groupB
2.8263020112418635,groupA
7.5098859451073094,groupB
5.780338229771539,groupA
4.612935533754005,groupB
0.6520952640573108,groupA
0.9132060615367188,groupA
3.7702887259353615,groupB
3.8456279026245355,groupA
5.738196474147851,groupA
3.9659290700368324,groupB
8.239601310600465,groupA
6.612649564464449,groupB
2.3676253541704972,groupB
2.7997071308893897,groupB
3.1932127725163086,groupA
6.109445868006843,groupB
1.8660257079358011,groupA
0.8903811932196171,groupA
4.407082846890451,groupB
4.49142854312181,groupB
2.059780657541527,groupA
5.626729558475704,groupB
6.398969181498368,groupB
4.700319112921458,groupA
1.2377234094396738,groupA
3.5134738615866015,groupB
8.669554441723498,groupB
4.225404498935351,groupA
2.6426172992376107,groupB
4.496502332743768,groupB
8.407724957479212,groupB
5.382601256576672,groupA
9.695113549691428,groupB
3.9586009728911264,groupB
5.544183847704267,groupB
4.589469273235344,groupA
6.345881529446072,groupB
7.982978663164105,groupB
4.20243079678875,groupB
1.0382417951279288,groupB
4.569302667679018,groupA
8.060522674294397,groupA
2.4405898648203705,groupB
1.6469417784692075,groupB
2.181427856635758,groupB
3.6597974119729293,groupB
7.8753678096171695,groupB
2.5698793927382955,groupB
8.231563914206667,groupB
9.214828119226532,groupA
8.973237079322,groupB
8.586153316370272,groupB
1.24530052211978,groupA
8.936942823950782,groupB
2.0950223202144014,groupB
5.914860621989541,groupB
2.8702348292643043,groupA
2.3394082383310053,groupB
9.868542115489142,groupA
4.328937952619216,groupB
7.996044869608135,groupB
2.98704219514946,groupA
2.18864082188969,groupB
3.6000556477753074,groupA
3.408608633205481,groupA
6.350951358384273,groupB
2.622397651365578,groupA
2.392659044879019,groupB
3.433012527089967,groupA
1.9582627717006906,groupA
8.715889763614339,groupB
4.66773138895877,groupA
9.980750532045624,groupB
3.5692455828678193,groupB
8.612634087961776,groupB
6.731537486113036,groupB
9.819135796330134,groupA
5.7742871832458595,groupB
0.4266278712612348,groupA
4.3906337951075685,groupB
6.821621991778163,groupB
9.159330573661329,groupB
7.357285848301858,groupB
3.7146932152414527,groupA
6.250837964732457,groupB
0.6128546846179428,groupA
5.950871893322347,groupB
4.969821955366188,groupB
0.8048498079737787,groupA
3.106313375120445,groupA
8.033338739474406,groupB
9.017451181060375,groupB
9.973461671761356,groupB
6.63287873615878,groupB
7.461620422920779,groupB
0.3716869189205496,groupA
0.175934128159142,groupA
1.2899268909401806,groupA
0.23197712003513504,groupA
5.009099948230666,groupB
9.873792423052631,groupB
5.686161834272133,groupB
2.881273178393473,groupA
2.6109801827720656,groupA
2.280634878358309,groupB
0.9856694349872563,groupA
7.225169791416871,groupB
8.21443727795742,groupB
6.051958801116739,groupB
8.603248957283999,groupB
4.969964046162202,groupA
3.124564534181169,groupA
8.277735080731347,groupB
9.566640291337357,groupB
9.754763314901911,groupB
7.608073227239595,groupB
2.7831992097029925,groupA
6.183969165664465,groupB
5.839206063314155,groupA
1.4059919648366281,groupA
2.952331613846748,groupA
3.3149409910803875,groupA
6.529084288693029,groupA
2.8696038315383685,groupB
1.5256780359642075,groupA
2.2517398474244543,groupA
4.07681759467534,groupB
3.7839071683596694,groupB
8.810256362345543,groupB
6.073785575216911,groupB
9.223369823265255,groupB
7.284409517788401,groupB
5.9137506635576065,groupA
1.0467174935160695,groupA
8.749188062270397,groupB
8.12766011233639,groupB
5.636180895398714,groupA
4.981223873700266,groupA
4.829187813591675,groupB
2.7189703987307645,groupA
1.8967663058027673,groupA
4.83639448003248,groupB
0.06450892782084106,groupA
5.351403433942362,groupB
9.637419661504971,groupB
2.7236494599140935,groupA
6.6843206387278915,groupB
4.031236850462264,groupB
3.341709473834725,groupB
0.913259547643408,groupA
0.4356801033709201,groupA
5.8633480072287005,groupB
0.17238860036192571,groupA
2.6320302419757047,groupB
7.4384297604537455,groupB
7.395725474096523,groupB
6.513682565808444,groupA
0.12765692773690662,groupA
2.074178984330217,groupA
8.569726744235494,groupB
6.877137836870171,groupB
4.516062839082214,groupB
2.571134589551065,groupA
1.329660770095633,groupA
5.881432649338252,groupB
1.769987620563166,groupA
8.076255568707435,groupB
1.6934216951183623,groupB
5.7553255082076005,groupB
5.391220754354178,groupB
1.8779737304885658,groupA
0.7006177845211647,groupA
8.665829778863943,groupB
1.9699179389871069,groupB
3.230397563463614,groupB
8.505091395410803,groupB
9.486456538035604,groupB
0.2009285273163508,groupA
8.576043331687984,groupB
2.6777608857493265,groupB
6.457410056361623,groupB
4.8212781049296085,groupA
8.480086384143144,groupB
7.090027848023331,groupB
4.834158920992337,groupB
3.270861748239784,groupB
1.3549335077628766,groupB
9.457919890189903,groupB
9.07479457101877,groupB
7.169839377585399,groupB
9.118441656491216,groupB
1.486864943775612,groupA
8.600726014875516,groupB
1.5546397845656068,groupA
3.809916218664026,groupB
5.654378796825585,groupB
8.619002626516377,groupB
9.417185728684835,groupB
1.3714346361361485,groupB
1.9346483448449192,groupB
3.076108261679421,groupA
5.739939240144192,groupB
8.243160048244427,groupB
8.48039855282859,groupB
0.3993807233498947,groupA
5.7974026940842895,groupB
5.043921844199168,groupB
4.552671460317422,groupB
2.368985711463578,groupA
4.981327634307588,groupB
6.805081671137071,groupA
6.2911323964662,groupB
2.0650674591631812,groupA
8.374326293519772,groupB
1.3578358459714612,groupA
5.5528646546086025,groupB
2.3845095001247127,groupA
5.410874707990629,groupA
2.3717680802786987,groupA
5.66673352199785,groupB
2.8716244885851583,groupB
9.485610940047128,groupB
5.004444101513056,groupA
2.04742758339484,groupA
9.527755006659893,groupB
1.6498759207813019,groupA
4.415731576980427,groupB
9.026097104061341,groupB
1.5456594645617905,groupA
7.5258851203689145,groupB
7.762662304202471,groupB
0.664772248340163,groupB
6.4638764230291095,groupB
4.3047733493491105,groupA
1.4260903560837945,groupA
3.754818529866152,groupB
3.6809779699653378,groupA
0.8147884765615521,groupA
7.802996622759167,groupB
6.5247455790957956,groupA
7.455413516933725,groupB
4.877639660560538,groupB
1.1705945449256172,groupB
0.012587463392325082,groupA
8.007994760760907,groupB
3.8366896350076174,groupB
4.001753564251055,groupB
8.649483365543912,groupB
0.9241472484472346,groupA
2.6563459774468665,groupA
3.265743160753024,groupA
7.754384580628191,groupB
5.223849817305779,groupB
9.367410197684277,groupB
8.232747146011409,groupB
3.5991431694664824,groupB
2.949359480638175,groupB
5.971804814200072,groupB
5.132569534496488,groupB
4.056480179776589,groupA
3.353864501768953,groupA
8.91928262692268,groupB
0.6838025724729846,groupB
7.022151730130993,groupB
2.4163021424627376,groupA
2.719442624806967,groupB
2.464497749366962,groupA
9.58238163467435,groupB
9.83568940322767,groupB
2.539402706573086,groupA
3.7629385273989504,groupA
2.8974944126377933,groupA
6.468134482182552,groupB
2.2393273429167557,groupB
8.820003524603555,groupB
7.95551374637162,groupA
2.6756865106951153,groupB
7.286933794961186,groupA
9.114184012097187,groupB
2.5219613415606035,groupB
3.791541703241802,groupA
2.5341316402842917,groupA
5.876637518908421,groupB
3.9245563149860163,groupB
1.12280246792121,groupB
1.6938517236761474,groupA
9.655570800537323,groupB
9.758163853744295,groupB
3.08070102366187,groupA
3.3763900485668294,groupA
6.2443019868152,groupA
5.514004913442264,groupB
0.33838197979133455,groupA
1.1795269324921887,groupA
4.381910879653894,groupA
5.709513308571167,groupA
4.776211448534595,groupB
7.116265851124743,groupB
4.5344938719485555,groupB
1.8466638965308524,groupA
4.5110856620094,groupB
6.743053917903598,groupA
7.942556950417352,groupB
4.826257411098628,groupA
5.865062021953146,groupA
4.94831111307383,groupA
9.6185614136101,groupB
2.006414692056561,groupA
8.774265281636861,groupB
6.298262526254571,groupA
9.709411757258927,groupB
5.472050243561082,groupB
0.154661254249161,groupA
7.030470991427157,groupB
1.6818457196981562,groupA
1.178751237557375,groupA
2.128868199392171,groupA
4.744851686982454,groupB
8.193040264385672,groupB
1.1934284167202924,groupA
9.998407025204326,groupA
0.1708463373413116,groupA
1.7919078247501008,groupA
8.363207498775795,groupB
1.3581325887741402,groupA
5.285108278748312,groupB
6.24480906242209,groupA
4.334954643687693,groupA
9.952226940835866,groupB
6.80749491389575,groupB
9.247870887526586,groupA
5.1959489880687215,groupA
9.641046037982795,groupB
0.5991869172514053,groupA
0.5005587759176322,groupA
1.2306784596635756,groupA
8.280975344312635,groupB
3.703819815368601,groupA
2.9642326627463,groupB
7.852435760274887,groupA
3.2297405497872744,groupB
8.282940830115331,groupB
4.976393197438504,groupB
7.977960106191837,groupB
8.610521539496599,groupB
8.16685405286129,groupB
7.5663365312107835,groupB
3.619209212834299,groupB
5.151699407919495,groupB
0.43081336668364667,groupA
3.6197475695427728,groupA
7.762587204412654,groupB
1.335822457940118,groupA
3.668021094796101,groupA
2.736010075063362,groupA
0.5304906787323715,groupA
6.430857813405418,groupB
2.4123117109078187,groupA
9.948973848606347,groupB
4.854510537417921,groupA
2.6472223173697285,groupA
5.505714835894936,groupB
5.644716752510974,groupB
2.4594274347714853,groupB
2.7923772425190574,groupA
0.7441015407259477,groupB
3.682263494048239,groupB
6.7314113543292855,groupA
8.226676235878651,groupB
0.5963057202667343,groupA
1.0478858764477172,groupA
3.23545468067574,groupA
8.224081170162993,groupB
4.500777299917314,groupB
4.461800749626615,groupA
4.312707320623959,groupA
8.792545638559183,groupB
3.6149497157426005,groupB
1.7879238517832718,groupA
1.7283868006779712,groupA
6.113240002107631,groupA
8.93587786541046,groupB
1.4216223817680151,groupA
0.9994895401243009,groupA
5.7360732881199015,groupA
4.529839222486802,groupB
4.064724498704681,groupA
5.396494685499491,groupB
3.9605996247397024,groupA
3.9007312573863007,groupA
4.427737320096739,groupB
4.11628086865025,groupA
7.0945892581535475,groupA
0.08330172010768022,groupA
6.881342225789659,groupB
2.5399582342463223,groupB
8.894244818524534,groupB
3.2522328468913377,groupA
8.336632948554337,groupB
7.438389205519008,groupB
7.045959525750952,groupB
3.970418543646408,groupA
3.5587999744791876,groupA
3.432732386893905,groupB
8.364099137087726,groupB
4.731671682689162,groupB
5.573379269936263,groupA
0.7640237698262864,groupB
5.985738521946104,groupB
7.35059815958548,groupB
5.137850379840078,groupA
7.625000611334842,groupB
3.4935627368007016,groupB
2.775235924043369,groupB
4.723118440814657,groupB
1.9532350267825194,groupA
3.062943974432332,groupB
2.8998107385653293,groupA
0.8468219562309487,groupA
9.01503031087285,groupB
1.5979896318355302,groupA
9.382848842879051,groupB
3.6598003140577218,groupA
8.506122921760044,groupB
8.802317037577154,groupB
1.870948210841037,groupB
9.613520881990956,groupB
1.78339146966506,groupA
9.350415781603724,groupB
0.5254956520823661,groupA
5.003611768832403,groupB
9.590655757874995,groupB
2.1303955145146283,groupB
4.577045847950892,groupA
8.83548080530199,groupA
8.964128726051552,groupB
8.98314679055828,groupB
7.612222666449508,groupB
9.403617162626713,groupB
5.455829426011201,groupB
3.7496722548392967,groupB
0.3468649408278812,groupA
2.296683355905901,groupA
1.2966313193444334,groupB
6.7595189310853225,groupA
5.2665019552690575,groupA
8.284710498889169,groupB
9.378785536109929,groupB
6.369565255556938,groupA
3.324600877407302,groupA
8.230201485668648,groupB
7.058574777565854,groupB
5.733352685095831,groupB
8.077673390015729,groupA
2.2780580918926727,groupA
7.694902818728532,groupA
1.804884492988228,groupA
5.495247010680061,groupB
1.0750408616434937,groupB
3.8244555681574797,groupA
3.5343164393567426,groupA
0.0966885651156002,groupB
4.571782435295576,groupB
6.047759892826741,groupA
5.391926081948438,groupA
8.014413343204934,groupB
6.461792308932758,groupB
0.5258776536851884,groupA
0.5756253078167395,groupA
1.6363998421765868,groupA
9.873725994335688,groupB
4.771266398596291,groupA
9.549283817829446,groupB
6.306157570336937,groupB
8.385523494379237,groupB
2.8088921361349284,groupA
4.676200942989199,groupB
8.415151264569342,groupB
9.570704812087143,groupB
3.2791407903532557,groupB
0.6249161752156929,groupA
3.46466139295482,groupA
0.3856777436034764,groupA
6.490329293865633,groupB
4.62262232360797,groupB
8.248443611361683,groupB
1.9987383504656508,groupA
2.4873129838846464,groupB
6.422965020056987,groupB
0.25533997837562605,groupA
8.851570369890466,groupB
2.909205404360823,groupB
7.666899651864218,groupB
0.3469632583426163,groupA
3.506329986160802,groupA
5.632711749313194,groupB
5.993271418700243,groupB
8.458248142632968,groupB
6.308399919614142,groupA
6.150927651044936,groupB
4.364307683878385,groupA
1.8202778287554655,groupB
1.1979371816874884,groupA
1.3772967423618754,groupA
8.393486960259695,groupB
7.4314046543609305,groupB
5.712525242421548,groupB
5.491157792498842,groupB
8.501217773404552,groupB
5.214019937101942,groupB
1.887360577102598,groupB
8.799076269971199,groupB
3.1981378860316436,groupB
1.5939265675475156,groupB
3.3960800527823833,groupB
6.962839856257512,groupB
0.14606903505894442,groupA
9.824394119236917,groupB
3.8708522461326567,groupB
1.7722500533343677,groupA
2.530943477333132,groupA
9.038627964786354,groupA
8.349833720008567,groupA
5.6940340058403125,groupB
6.077326376236981,groupB
8.137355622284101,groupB
8.647322698651243,groupB
0.326501878269182,groupA
2.3361502876559594,groupA
8.681005643431398,groupB
9.019524494663695,groupA
5.5958432669467655,groupB
4.000471954184469,groupA
7.030832039362301,groupB
8.668107333120934,groupA
8.850861716124399,groupB
9.481595031439044,groupB
5.236297822445043,groupA
5.714730526630449,groupB
5.098857830744863,groupA
5.061781042521515,groupA
1.3568662728859937,groupA
4.591326858064817,groupB
5.470442925740739,groupB
1.1006609458281758,groupB
7.888569977434164,groupB
7.090663577768639,groupA
6.943180927488881,groupB
3.1998400616269995,groupA
5.1865812025682,groupB
1.3459567179488463,groupA
3.574755538757526,groupA
3.33224567054729,groupA
9.775544292601078,groupB
2.962102317574139,groupA
6.521245848723945,groupA
9.84645963258543,groupB
3.3543778352693474,groupA
6.578301219527566,groupB
5.314183058347085,groupA
8.307313740496218,groupB
1.3601572759801694,groupB
2.945011463366755,groupB
6.95426994484608,groupB
8.396848012141074,groupB
2.9787982499539556,groupA
7.7586382799074585,groupA
7.906604354570853,groupB
0.8575566523705391,groupA
1.394595324723763,groupB
1.095215763979479,groupA
9.952331002776218,groupA
4.714606479672151,groupA
1.365995781949062,groupA
5.36838792545116,groupA
6.8090311539735175,groupB
9.98614260459601,groupB
4.50482387760999,groupB
0.824833746237057,groupA
9.56469997841573,groupB
7.720313657576129,groupB
3.117774752779429,groupA
9.168231611824588,groupB
5.2095197671127424,groupA
4.6424803421511305,groupB
4.43338971917346,groupB
1.9259966364688264,groupA
1.1711937552082896,groupA
7.833170369867894,groupB
5.369675296888867,groupA
2.565184564104187,groupA
6.882513506275018,groupA
8.78238893667949,groupA
6.67554217623163,groupB
2.5177106510591485,groupA
0.49695982545266637,groupB
0.6933780960498992,groupA
5.875593362159783,groupB
6.5517090396444875,groupA
9.226153490609068,groupB
7.072004600523333,groupB
3.6284899062932006,groupB
3.1555487842631855,groupB
7.052242934763935,groupB
9.188624891614799,groupB
4.133947727778901,groupA
9.58252572425515,groupB
5.262994340976456,groupB
9.908219670063383,groupB
9.445862621590003,groupA
8.205182947333862,groupB
3.2053266934279243,groupA
8.341262806664444,groupB
0.916410154738373,groupA
3.0848664647297266,groupB
7.535947382616941,groupB
4.680394187636833,groupB
0.5492301490674967,groupB
0.8796000062886034,groupB
4.090976636220503,groupB
5.083456051181891,groupB
6.413743582382714,groupB
4.065484862617618,groupB
3.1691648346127943,groupB
9.387538205752252,groupB
1.1957809186315582,groupA
3.076169088079718,groupB
4.7383620266598765,groupA
8.355786847611611,groupB
1.754299819267181,groupA
6.482820382776396,groupB
7.888971537913868,groupB
4.852116045003418,groupB
1.636036711832336,groupB
9.323560804948153,groupB
9.171566685885962,groupB
4.310508346205778,groupA
2.8792452307367276,groupA
1.6952903071956993,groupA
7.512838458761807,groupB
2.836072258003639,groupB
9.217746316322238,groupA
5.7598394325954105,groupB
1.7924428906455447,groupA
6.683835626429579,groupA
9.674603048486205,groupB
5.376761940835091,groupB
8.314785677598149,groupB
9.366638185002333,groupB
0.3018583629125604,groupA
0.1118869678709955,groupA
4.0997014319978,groupB
3.6223721820156776,groupA
6.863711154911592,groupA
3.807836739905576,groupB
2.7634896160050824,groupB
5.518928212085603,groupB
3.053750340996877,groupB
7.132636729086855,groupB
9.729774346050016,groupA
9.406967125983673,groupB
6.454711365620916,groupB
6.406651182579143,groupB
4.4047638730007055,groupB
1.7792861437798424,groupA
8.057646063350614,groupB
5.876429658633844,groupB
7.924124189475394,groupB
2.6130064305578857,groupA
4.516206621751993,groupA
3.7554859070654767,groupA
5.122971528024665,groupA
6.927799395855713,groupB
5.274429108083467,groupA
0.5541290899780338,groupA
9.834315466566219,groupB
1.2793435931602581,groupB
7.720227930325324,groupA
1.2095430138647811,groupA
9.666316273762225,groupB
8.130348292100416,groupB
2.1228158137603206,groupA
5.508462844179222,groupB
3.570306493869577,groupB
0.6287755148614038,groupB
7.44518016161274,groupB
7.441838571682053,groupB
6.158853843843948,groupA
5.62001346886928,groupB
8.41112370818098,groupB
7.086383965151953,groupB
2.5790575035630114,groupA
9.79117554242237,groupB
1.272442757139438,groupA
4.983228709276987,groupA
7.347450934413877,groupA
2.9746143324141014,groupB
9.481636566207701,groupB
0.8590756887335882,groupB
7.809691929339083,groupB
0.8260971285398166,groupA
3.438820654001912,groupA
5.9591686994107365,groupA
5.5448155560912085,groupB
2.5616093853839264,groupB
9.251828299561275,groupB
1.7515495694583227,groupA
7.1780928867041505,groupA
6.12486600671006,groupB
7.223057389515777,groupB
0.8048842681882762,groupA
4.630107397158691,groupA
5.223536563063931,groupB
9.846477545681541,groupB
7.192615495118739,groupA
6.087948418898948,groupB
8.99288034580017,groupA
3.348134626666306,groupA
0.7582064369722041,groupB
5.056530638556303,groupB
3.7166304015669462,groupA
4.211970775602861,groupB
9.382332195228487,groupB
0.19691140278771946,groupA
6.8710424093747955,groupB
9.272100070186909,groupB
6.38440951552999,groupB
2.5907032625467297,groupA
0.7922014416476175,groupA
2.488852939247975,groupB
2.1978708349163534,groupA
6.235668243543381,groupA
7.250948368808798,groupB
4.718682517837652,groupB
4.279956330048361,groupB
8.471484004575684,groupB
5.124819783476497,groupB
1.990957054837308,groupA
1.120056685698091,groupA
8.49436216748275,groupA
2.871664660183111,groupA
8.964965184329987,groupA
2.4321481382162347,groupB
7.826330695653374,groupB
1.543296185580001,groupB
4.399202246259543,groupA
0.8616805228848867,groupA
7.584950176715312,groupB
5.256627232506752,groupA
5.256907026169744,groupB
1.4792402451664,groupB
4.521156913149814,groupA
6.209906803710142,groupB
2.2254217014477318,groupA
5.114996786444453,groupB
4.269715869567494,groupA
4.0573939433524355,groupB
7.264516153655122,groupB
4.3206747130884295,groupA
4.145038511518379,groupA
2.520262039689797,groupA
9.736344322218782,groupB
6.0096584496176995,groupA
4.515303522265782,groupA
4.016693596137721,groupB
1.7169949057881628,groupA
0.16965062303048062,groupA
2.5440172616597367,groupB
9.560672738029814,groupB
1.350119127649787,groupA
7.483663917337849,groupA
2.488270596211841,groupA
1.6464129613226597,groupA
0.2741911458089752,groupA
1.2203363096173947,groupA
5.218639395158242,groupA
1.9618185763681006,groupA
3.0275406529519753,groupA
6.818718065196493,groupB
5.95231194414827,groupB
9.936864357191391,groupB
2.29420927979045,groupA
0.6196027082457245,groupA
2.9877524764765937,groupB
7.926980501049035,groupB
9.377393540940446,groupB
2.0777419016775345,groupA
3.458931323065805,groupB
1.571885007952808,groupA
8.448045189285004,groupA
9.388236883899296,groupB
1.596480209589537,groupA
1.0900470073177126,groupA
1.0801065622453843,groupB
0.1060880924508556,groupA
4.842492033113704,groupB
9.220019056356763,groupB
3.110628092671339,groupB
7.329172649492773,groupB
7.409184389138545,groupA
1.6729600909830344,groupB
3.806166283487531,groupA
0.1193535873084961,groupA
5.837207942318473,groupB
5.505235258771577,groupB
1.1236691758188044,groupA
8.790351823664986,groupB
7.978609210228682,groupB
3.1642224603561675,groupA
1.0655092423608592,groupB
1.6995033370837964,groupB
4.1277862122848195,groupB
5.231340565903194,groupA
1.8792270416096135,groupB
8.417410189603409,groupB
5.120301201685679,groupB
2.4295328119953674,groupA
9.371377460046585,groupB
3.257349206069761,groupB
7.827063328099673,groupB
8.342447835953003,groupB
0.7139226932212472,groupA
4.736458998193892,groupB
9.146781918901908,groupB
3.792578953490601,groupB
4.736886318694164,groupB
7.69326075766376,groupB
8.243127534578814,groupB
3.947563316450158,groupA
4.332246108864094,groupA
0.549810529915491,groupA
6.128845407286727,groupA
1.1884639854500567,groupA
4.844818042986459,groupA
6.099301586806371,groupB
6.855052661604255,groupA
3.520560620035723,groupA
3.3934170728085555,groupA
8.707575386485527,groupB
5.4517414874876415,groupB
6.994196945211533,groupB
1.2409261476728495,groupA
7.894827568469434,groupB
1.6605127701072753,groupA
5.107512542886717,groupB
1.4997743844307976,groupA
9.835637143095767,groupB
2.521895526462986,groupB
1.5801331535731544,groupA
0.5982915114785647,groupA
6.773897844778444,groupA
0.49018976214218357,groupB
0.03154980143514452,groupA
5.615687159003917,groupB
5.055586457143645,groupA
1.255209865501249,groupB
4.00320129104303,groupA
3.4850469119183423,groupA
6.266687291356887,groupA
8.503020963993354,groupA
9.181129690360365,groupA
8.424492971761058,groupB
1.624779001221719,groupA
2.940876874258791,groupA
1.577206345932145,groupA
3.1400435231111565,groupB
6.578413184240068,groupB
3.882979187802743,groupB
7.500788006412144,groupB
8.296989302856883,groupB
2.7547538715532447,groupA
2.2250295504520725,groupB
4.3074552384653835,groupB
5.520808186682636,groupB
5.668114180419872,groupB
9.75221796055445,groupB
2.7741620221724226,groupA
7.398512379326164,groupB
4.633832130665846,groupA
7.296442571425183,groupA
9.366398294649978,groupB
5.335393236059751,groupB
2.2659566605388646,groupA
1.4970502244650674,groupA
8.197266127902475,groupB
3.0026626714448246,groupA
3.8847920365666933,groupA
9.881891266707216,groupB
0.9139391098116156,groupA
0.9044989706242157,groupA
6.701560221979262,groupB
7.072379529436211,groupA
7.585711943028654,groupB
1.3082421791715548,groupA
7.3310926113580415,groupA
1.37165889737903,groupB
1.6305146076859944,groupA
3.5225075367898837,groupB
7.027172824875441,groupA
3.40683011123301,groupA
7.34276455851563,groupB
6.971991896443338,groupB
3.025199897843046,groupB
4.296086830151374,groupB
4.333001912957203,groupA
4.495832204149131,groupB
2.9683453571898957,groupB
4.77497575031453,groupB
0.535828326313228,groupA
5.173230154810006,groupB
7.010146685138522,groupB
3.4619338883242845,groupA
4.982960072467008,groupA
5.234255293196184,groupB
8.72109081170709,groupB
8.934697314892313,groupB
5.587163285555105,groupB
6.3175068872311915,groupB
4.240532465086564,groupA
8.332723512952652,groupB
2.273671772689454,groupA
2.655691034980526,groupA
7.5383360983762575,groupB
3.9468496642803217,groupA
5.180330813980536,groupB
6.464908943114226,groupB
4.481749933654374,groupA
7.700126780070486,groupB
3.796897511265338,groupA
3.7370762571372285,groupB
6.409805313475603,groupA
2.901047209579107,groupA
0.017075725804935882,groupA
9.234660588531497,groupB
4.836305836403279,groupB
9.343838048136549,groupB
4.542213050046935,groupB
9.303857375723187,groupB
7.938301323740138,groupB
5.265531432913484,groupB
7.030051240378138,groupB
7.291187616075755,groupB
9.813676347634754,groupB
1.2152762303597242,groupA
0.1712504386586422,groupA
8.09780553606627,groupB
8.751678841975203,groupA
2.2607117938215717,groupB
2.564996728509926,groupA
3.557818645309563,groupB
7.565217456306792,groupB
6.705846811795509,groupB
5.136119395276653,groupB
7.797664511313541,groupB
9.463632284196853,groupB
9.52512242877112,groupB
7.891683968159215,groupB
4.032824493457031,groupA
7.048232004712652,groupB
4.773382461545598,groupB
4.27573327191608,groupB
9.98938863024633,groupB
0.3077506896158977,groupA
3.399168855881811,groupA
7.186148953742199,groupB
5.498500488330408,groupA
5.463370084679936,groupB
6.100772334292957,groupB
6.025727248938093,groupB
1.0925106341151924,groupA
9.118113893349587,groupB
7.396188486639664,groupA
6.847427424952634,groupA
2.517521388918337,groupA
8.327114848180505,groupB
9.048685505266285,groupB
5.817095713628923,groupA
0.9464269866742614,groupA
4.316043107485386,groupB
2.861978866798535,groupA
9.670219470191796,groupB
8.901809751904114,groupB
5.996192163576964,groupA
3.9396785804698653,groupB
9.61564089944699,groupB
5.1451694766149325,groupB
4.986435600957199,groupB
2.4431002410489047,groupB
7.990609150489673,groupB
9.31767356898973,groupB
0.35331193108629866,groupB
1.1738705921359482,groupB
9.868772731528173,groupB
6.281487650591981,groupB
2.988449442912567,groupA
6.7908871727259426,groupB
6.4551686189055735,groupA
6.856988843356224,groupA
3.6937335969355276,groupA
7.826759397043777,groupB
9.37815174894278,groupB
3.020835441020001,groupA
8.344129591457271,groupB
3.9222561286129887,groupB
7.534478803523873,groupB
2.257714062847737,groupA
8.619720311923219,groupB
8.717644432718544,groupB
2.8061238490808393,groupA
4.373120914517173,groupB
8.884892890790587,groupB
6.8400277543126595,groupB
1.310304253610839,groupA
9.99803907752422,groupB
2.955031939763104,groupB
1.4625102575282856,groupB
0.650845205452597,groupB
9.664844536612131,groupB
8.309622298219777,groupB
8.384627396306767,groupB
5.411358234493387,groupB
5.716992786248846,groupB
7.33417752739565,groupB
0.738116040511414,groupA
6.589451756197169,groupB
2.5365152988407225,groupA
3.4194433580773556,groupA
2.845668583407729,groupA
1.255804074700223,groupA
8.330340376253446,groupB
5.201231960674849,groupB
4.884427777368707,groupB
6.090577927741546,groupB
9.800001446107565,groupB
1.3430882416918222,groupB
1.6060615138064305,groupA
8.979334339861037,groupB
8.814122933597629,groupB
5.47059386348489,groupB
8.06042055329055,groupB
2.1369855182623643,groupA
3.1877347324986816,groupB
1.0530795311095131,groupA
5.022933131203927,groupA
5.585877304869075,groupB
5.9192091894786945,groupB
7.057148284435301,groupB
3.44366765116264,groupA
2.7760142959679914,groupA
3.9104584277211685,groupA
0.3967927036494967,groupB
4.86878221341566,groupB
8.953684921668499,groupB
7.058734728972529,groupB
1.8758663153270583,groupA
7.427024248399057,groupB
5.030018616342514,groupB
6.512470322504047,groupA
0.22778550779291362,groupB
0.9629375365648174,groupA
4.3627507331618745,groupB
0.27633437481185297,groupA
8.740957878177035,groupB
1.4161057081785033,groupB
0.45091176357351714,groupA
9.77307734275927,groupB
1.0216118731882773,groupA
2.1175230772469367,groupA
0.18022259768759374,groupA
0.5565753230806636,groupA
4.862271150992373,groupB
6.669147792720387,groupA
9.292386277214424,groupB
8.350248526108112,groupB
4.596664688463079,groupA
5.203780149314161,groupA
5.248666277599607,groupA
0.7800239552747845,groupA
4.341709182222241,groupB
8.646232365511752,groupA
2.9003386736140824,groupA
9.497214480469092,groupB
4.234416604138947,groupB
7.013732224626951,groupB
2.367744974048349,groupA
4.353889935075644,groupB
4.215012958021502,groupB
0.5477443582959518,groupA
7.486472698598078,groupA
4.505027890859266,groupB
0.604765428379298,groupA
1.648821541623765,groupB
0.043082320207781244,groupA
2.9652055468359073,groupA
8.164337405895163,groupA
1.1223248025628263,groupA
6.952015759583956,groupA
4.533866995055785,groupB
8.451007897999864,groupB
1.4112867330292977,groupB
8.396779180464824,groupB
9.007022802692378,groupB
6.044626119232676,groupA
9.412471357962222,groupB
7.8679319576891675,groupB
5.193127591939302,groupA
9.975299879047109,groupB
1.6056910317261708,groupA
4.792258141507411,groupB
8.019111959779286,groupB
3.821870628582984,groupB
8.881327508705553,groupB
6.094966478560871,groupB
3.6151162307524065,groupB
5.289291816694454,groupB
9.2771517378002,groupB
0.3218081603745293,groupA
1.9631756473360362,groupB
3.413909800404946,groupA
5.327093698565623,groupB
1.8413155180504182,groupB
5.8394214966670415,groupB
8.155945976478684,groupB
2.7194598247450017,groupB
9.838417061049906,groupB
9.318596330186658,groupB
5.254517493031812,groupB
7.141885751347493,groupA
8.20766389495113,groupA
1.084806824359642,groupA
6.547382311773799,groupB
2.580424855637186,groupA
5.684164655444047,groupB
2.838260503945639,groupA
8.169087702485479,groupB
2.809753357322611,groupA
7.458786472174655,groupB
2.932735397613888,groupA
2.279920485590984,groupA
6.573414356177777,groupB
8.675671112831068,groupB
0.3450083600670173,groupA
1.3553207586063054,groupA
9.063963584826407,groupB
9.387863807517219,groupB
5.581398276750903,groupB
2.1613152785306444,groupB
8.17320124961552,groupB
9.252783480506336,groupB
8.177784696775227,groupB
1.9048788018269003,groupA
3.836546382632915,groupA
7.2041157444582975,groupB
6.151388371284295,groupB
4.696510749171194,groupB
5.230872997562063,groupB
6.979895486090361,groupB
0.8125720736064335,groupB
8.382066830947345,groupB
1.0334868495250238,groupA
8.3763080381706,groupB
1.5339267651725674,groupA
1.4470683566149611,groupA
7.186697373019082,groupA
7.809995569690749,groupA
3.7867071205930634,groupB
6.4931674253761305,groupA
9.256841901395891,groupB
0.8041416584969641,groupB
0.4698098688354657,groupA
0.6257501448828973,groupA
9.49147680413333,groupB
5.679740701231241,groupB
0.34620240501981425,groupA
6.835137547413068,groupA
3.8704488166185547,groupB
8.566488245764475,groupB
8.432016197514931,groupA
2.4315664328561426,groupA
0.9660708704388798,groupA
8.099556252456358,groupB
5.214198169518022,groupB
7.104957170687195,groupB
1.2687829675392726,groupA
6.309884591668972,groupB
4.457176401515733,groupA
0.9919281024921378,groupA
4.135397538511186,groupB
4.43597067686294,groupA
1.5446979707392428,groupB
1.9809900879067,groupA
5.858914681006207,groupB
7.092657685142058,groupB
5.330872480587546,groupB
6.577366250294871,groupB
0.06737519493652977,groupB
0.5540887815980611,groupA
9.479248954998678,groupB
3.155301860556843,groupB
4.103403759304475,groupA
5.189500579610005,groupA
3.479001140929446,groupA
3.990619312257814,groupA
7.928897599030108,groupB
4.3963138381356,groupA
6.765246372845102,groupB
9.700957474458425,groupB
5.997362036300503,groupA
2.9882747926700723,groupA
0.5522023132545073,groupA
8.705703729914223,groupB
5.340084408079113,groupA
3.9191380306276438,groupA
3.623058653381407,groupB
5.10089454038257,groupA
2.565804226596433,groupB
9.675265370027349,groupB
9.01261441084914,groupB
1.4439230511713497,groupA
8.664680094862279,groupB
1.593011920596259,groupA
5.465180951096556,groupA
1.845051580356999,groupA
8.367797930268182,groupB
8.907072500518076,groupB
9.041991445038839,groupB
4.4225942053234,groupA
2.6186270941718015,groupA
8.391016351174729,groupB
8.174144655997551,groupB
7.520006590454798,groupB
0.5818169194595313,groupB
3.1067722669162845,groupB
7.787474276641521,groupA
8.498595097321711,groupB
6.010465708205452,groupB
4.85026010174275,groupB
1.4369262990430876,groupA
7.770458355483517,groupA
1.0220859838120322,groupA
3.398933808152096,groupB
2.3460812523599373,groupA
9.852671635575243,groupB
5.04636716517463,groupA
7.385629727781487,groupB
6.112108311023622,groupB
1.4044629531717923,groupB
4.3986049383192505,groupA
6.512534743086423,groupB
6.961243644406061,groupA
7.721765468750716,groupB
7.439236150305407,groupA
4.568719314706864,groupB
1.772070194974934,groupA
1.244415160764305,groupA
5.283923203311936,groupA
3.232766544727691,groupA
8.664480733681595,groupB
0.9854542396560961,groupA
9.555467730914977,groupB
0.5554758319849773,groupA
0.41599489507435417,groupA
1.0933411515465374,groupA
7.587628046731075,groupB
7.172179322728947,groupB
4.042571213247648,groupB
1.1489245315804786,groupA
5.01457854190586,groupA
1.2542929606335518,groupB
1.8904966554909364,groupA
4.3911526913321435,groupA
3.8649049613034805,groupB
7.758562246693476,groupA
2.9453500190197524,groupB
2.438724033439504,groupB
6.526076332622792,groupB
3.1719954820442533,groupA
5.783187979857364,groupB
3.7780801734999416,groupB
7.498413279573059,groupA
7.40141665719447,groupA
2.771513810369133,groupA
6.3388685531096005,groupA
3.304570897424468,groupB
5.158352972006837,groupB
3.470523797411922,groupB
2.8625939890160113,groupB
8.693112932435023,groupB
9.800825751296717,groupB
9.47959718895328,groupB
7.943709277264226,groupB
4.148269577045277,groupA
9.49047037680484,groupB
2.60477154193699,groupA
2.008689357001189,groupA
5.311571185242956,groupB
4.301978903415723,groupA
8.668537973945863,groupB
4.990289703351525,groupB
1.1976444590581081,groupA
0.8966036436930902,groupA
4.615975925905892,groupB
8.912495184416935,groupB
1.8526651302338193,groupA
0.07556691230714896,groupA
1.9570190596630677,groupB
7.3567551542596545,groupB
1.510193010476445,groupA
0.2146507707260803,groupA
3.7832994593954483,groupB
2.1307434250554302,groupA
4.339489638953712,groupB
3.7187094654996167,groupB
0.46303898402032306,groupB
5.174700314112972,groupB
2.8938616445057397,groupA
3.413772281771714,groupA
4.096135695221539,groupA
1.5537147322430533,groupA
5.53266692944144,groupB
4.6230366428080725,groupB
8.444930932892435,groupB
7.502172358131426,groupB
6.93583583458021,groupB
6.67830245679103,groupB
7.478911629397529,groupB
4.082850005803513,groupB
3.7231494204263083,groupA
4.145994624533183,groupA
6.112312449664127,groupB
0.7403758775452207,groupA
5.845046472099122,groupB
4.16130860491872,groupA
3.994506132425377,groupB
5.4783024111782455,groupB
9.383996184478788,groupB
7.2484001069812,groupB
1.2502166379063495,groupA
6.6509477929431835,groupB
0.5958768248830792,groupB
6.86086171621347,groupA
1.3697295704186385,groupB
0.48427854344876287,groupA
7.1734908853705495,groupB
8.825723340645395,groupB
4.621918664302257,groupB
3.9420080088764733,groupB
5.917204066361338,groupB
8.855289771522889,groupA
7.6023262098706255,groupB
2.9200917972193574,groupA
6.182365575631888,groupB
1.4625293402401163,groupA
4.125740362569595,groupB
4.940009820322095,groupA
2.9150378500654037,groupA
0.8543806726217196,groupA
6.512473946892073,groupA
5.442439841001951,groupB
8.905778978790783,groupB
6.778961995654523,groupA
7.378375955033873,groupB
9.850751333717442,groupB
2.5486697585678564,groupA
0.6817079754110211,groupB
1.8927737056008809,groupA
5.1394844270183455,groupB
9.19609536802457,groupB
8.915108194144615,groupB
1.7820555494291201,groupA
5.536730095955747,groupB
2.799384705688576,groupB
5.898958191638927,groupA
1.389237699599175,groupA
6.00989836053113,groupB
1.4153943548852688,groupB
6.013533564092693,groupA
5.205119587060106,groupB
3.5993545560728943,groupB
9.17742043652241,groupB
5.316336663798062,groupA
6.411794343550898,groupA
2.7101164382159415,groupB
7.157035915173116,groupA
3.8122318109449846,groupB
9.165350193252289,groupB
3.853354654325413,groupA
2.2070120330161327,groupA
3.6038370499060313,groupB
9.226355654936352,groupB
1.7206113647848398,groupA
2.24349569090779,groupB
4.649686565326999,groupB
9.852666695884096,groupB
4.017060934049997,groupA
6.71099066977916,groupB
6.626358057285691,groupA
2.9214941564972117,groupA
6.287089272286409,groupB
5.233076146927013,groupA
5.310692555613024,groupB
0.4625626983192277,groupA
4.616047550142019,groupA
6.085549279851335,groupA
4.471358416647688,groupB
4.171304817923241,groupA
0.1350768023579607,groupB
9.380986249672441,groupB
8.206043359074615,groupB
1.13392045563241,groupA
9.70896789785558,groupB
0.31242902123821303,groupB
4.420940649450379,groupB
2.6320330950454163,groupA
2.0364575365600013,groupB
2.900679385247673,groupB
2.3811369198888412,groupB
0.2946117297402695,groupA
9.093235617610475,groupB
9.199923356462108,groupB
7.340959959762841,groupB
4.413574508452472,groupB
8.824081114542283,groupB
7.459223892111535,groupB
3.78801336054871,groupB
3.415555520785034,groupA
6.134531111578934,groupB
2.2757289502131908,groupA
8.117955400814765,groupB
0.3579573471474784,groupA
8.40565926172718,groupB
2.1158765436473583,groupB
8.132282569485396,groupB
2.058669970265777,groupA
7.2879457771215534,groupB
3.873822319590663,groupB
3.870406011837011,groupB
2.8354456865459046,groupA
6.720732814838772,groupB
9.37591213942171,groupB
4.420860514015173,groupA
7.676419067250178,groupB
4.7399023408232575,groupB
6.264178733100369,groupA
2.694015951982082,groupB
7.434906975825603,groupB
3.4145741264047813,groupB
1.6821634926640028,groupA
3.088381911625002,groupA
0.8804263344464425,groupB
2.398815180352527,groupA
5.168287020439451,groupB
0.6714363315753857,groupB
8.278611399054629,groupB
0.27046996453557903,groupB
0.5046084314701271,groupB
9.269610377479534,groupA
7.843885521263335,groupA
7.698787694281059,groupB
0.6850608579403872,groupA
5.785033284361059,groupA
7.732637606194715,groupB
4.14690196311978,groupA
6.21373197664191,groupA
9.412121279543925,groupB
1.1372691593145212,groupB
7.354467933055715,groupB
2.5208797434964927,groupB
4.217020480443502,groupB
3.01258357952628,groupA
2.308728512915843,groupA
5.1362891926526375,groupA
7.9879866788247424,groupB
2.619103101842981,groupB
4.316513142625017,groupB
1.4741436053685275,groupB
7.304467694569393,groupB
3.6002922479194432,groupA
2.6215421254018367,groupA
0.5924755742818,groupA
0.5651406955289873,groupA
1.0133306766131878,groupA
5.72594293334709,groupB
9.368856250551097,groupA
6.1374084478339,groupA
4.49081612202018,groupA
4.095958507912255,groupB
7.3014077773699615,groupA
9.938563217659809,groupB
6.5020712338578015,groupA
7.651986490512851,groupA
7.063397879947759,groupB
5.446471565681282,groupA
1.0798636978311849,groupA
4.723670426182802,groupB
3.3172094014559517,groupB
3.3983647247326223,groupA
9.047328638505737,groupB
1.8218609768386707,groupA
4.779788692141121,groupB
9.022159403644947,groupB
1.9804870019022736,groupB
3.4396789455685326,groupA
0.6208821495989569,groupA
1.5263186635200143,groupA
6.227481220490772,groupB
2.4122421835370345,groupA
0.8053816318515228,groupB
5.441105428878073,groupA
6.223779511021848,groupB
1.3751911724563615,groupA
4.6435370766306345,groupA
2.164328710778056,groupA
0.13414413519309165,groupB
7.271019466222932,groupB
3.613069451567257,groupB
5.345342564351472,groupA
1.1518755483822496,groupA
4.333252527177716,groupA
4.334451721486294,groupB
7.387783179416717,groupB
1.3222643730556405,groupB
7.674255965249523,groupB
8.627724709373014,groupA
9.928817743929475,groupB
6.852554082959151,groupB
3.6242591437508107,groupA
7.9128055100367565,groupB
6.443691724964902,groupA
0.9410718489004,groupA
3.897098927845253,groupA
4.235737497756803,groupB
4.631092572994055,groupB
2.213269520691994,groupA
6.041075041265148,groupB
5.154840130935795,groupA
3.6779622607090867,groupA
9.995778720352353,groupB
0.4887182247839572,groupA
2.1911549176060485,groupA
2.321373350756004,groupA
6.588439160387817,groupB
5.833556117419729,groupB
4.96858379364573,groupA
7.478119253488151,groupB
7.199679920016024,groupA
5.190174664761631,groupB
5.316063049059503,groupB
6.476709877393735,groupB
9.67734502170769,groupA
2.0598613098383134,groupB
7.0961598813438815,groupB
4.1972270908248515,groupA
4.073578122988009,groupA
8.920452677676467,groupB
0.32450147653550365,groupA
7.016421691052335,groupA
0.5010130767306187,groupA
3.647009561240362,groupA
9.05910489044634,groupB
9.90172747602149,groupB
7.834219767663018,groupB
1.17971469407964,groupA
5.718328920508241,groupA
9.550491412745396,groupA
4.344951293211521,groupA
1.8857183182520543,groupA
3.9249982311575926,groupB
2.6003586664475,groupA
9.18569469133246,groupA
5.580167655785595,groupB
4.010113003097949,groupB
2.8328890816699905,groupB
4.200648001874857,groupA
5.91464055501606,groupB
1.1241055805157452,groupB
8.363273724699852,groupB
3.387518048597414,groupA
4.013756478515996,groupB
4.022244580144578,groupB
9.181480657286299,groupB
0.5922411169152941,groupA
1.0166905228493905,groupA
1.3826227151012283,groupA
6.429930895877725,groupB
8.92037706593639,groupB
5.202229107604088,groupB
2.6931283711188323,groupB
8.53438278597777,groupB
0.7157882749950228,groupA
2.2552304243177614,groupA
7.864503585897811,groupB
1.0312801339747446,groupA
8.705294747497913,groupB
4.048946803718354,groupB
6.690433745633538,groupA
8.658326017977508,groupB
4.547083708319345,groupA
7.120468328255505,groupB
8.826739202740935,groupB
1.2162238719942542,groupA
4.154221345039732,groupA
2.323139381113417,groupA
2.188038095227455,groupA
1.8077976469034795,groupA
1.9899808239307804,groupB
0.4364915834389238,groupB
2.493350237508356,groupA
4.4742830424985005,groupB
2.3398396570470705,groupB
8.756133809511844,groupB
6.407428343017952,groupA
1.854429685854726,groupB
1.2406971767445352,groupA
2.796944057932839,groupA
2.4412466131803745,groupA
5.3858531940741114,groupB
1.2696276067492185,groupA
7.61541439224663,groupB
6.955972282976134,groupB
5.564308184997947,groupA
4.334593943520683,groupB
0.25242976101890413,groupA
1.5664933592495378,groupA
6.908387930447813,groupB
7.633987441072509,groupB
9.246197985309534,groupA
4.613609733342603,groupA
7.296580462840434,groupB
1.3204370660816689,groupB
7.865303355136842,groupB
4.662419179900016,groupB
9.221299908880717,groupB
5.470527080657451,groupB
3.931540643407211,groupA
2.0261540678635006,groupA
7.929936999730724,groupB
9.673162083649471,groupB
3.077588544333032,groupA
3.7913899991517006,groupA
9.304323571029787,groupA
2.9463270409211093,groupA
1.72081091432993,groupA
4.757534573852599,groupB
6.294255009353856,groupA
0.4096819984038813,groupA
6.60534207482736,groupB
6.9699597139809395,groupB
3.6135349174011178,groupB
7.90731075581387,groupB
5.612706259731479,groupB
2.3349558340869994,groupB
4.792885581108103,groupA
6.913293738973261,groupB
8.777858721838616,groupB
9.21250778054421,groupB
6.346180767516335,groupA
0.9785858418521232,groupA
3.65280611816912,groupA
5.290080631560812,groupB
0.2467754265751987,groupA
6.700749135190195,groupA
7.882692356844282,groupB
5.691355579289578,groupB
6.849918617844656,groupA
7.821900978047115,groupB
7.116986687978313,groupB
9.755995730114247,groupB
6.274815464096405,groupA
0.2820812086675195,groupA
4.157543881515732,groupB
9.671748319091705,groupB
1.7340225745217774,groupB
9.666121900930584,groupB
7.000854735178335,groupB
3.9238516295223356,groupA
4.745509932380641,groupB
4.866780850834828,groupA
8.58764861145468,groupB
2.9679810513816527,groupA
0.1795682156740297,groupA
3.4239001763104913,groupA
9.521677959135049,groupA
0.5947103662880138,groupB
0.9932666525050482,groupB
3.9609473065054113,groupA
9.622368544388188,groupB
3.9423337883773,groupA
4.82255398257271,groupA
9.592466664863696,groupB
3.2631271804449358,groupA
7.181279200325602,groupA
0.588306854484546,groupA
6.878537940893682,groupB
3.317279715283248,groupB
7.5313771031495405,groupA
5.398378016135243,groupB
7.708759835671888,groupB
5.954462257442669,groupB
8.820843503234425,groupB
4.482402362399438,groupA
4.8558702483030025,groupB
3.238115745909301,groupA
3.4345926875723487,groupA
8.088038933260458,groupB
5.388850063651281,groupA
7.6746343403914405,groupB
1.7548576743768651,groupA
4.3233457940789135,groupB
2.8120378540161406,groupA
5.730513603879142,groupB
2.4381523634770907,groupB
0.19587954212193726,groupA
7.928899013742513,groupB
9.508094450098177,groupB
2.812288339922736,groupB
0.6392648510298149,groupA
7.838919338347285,groupB
3.8645808661385495,groupA
6.872082392101425,groupA
7.4156527185310015,groupA
1.079650482998764,groupA
2.352931759470571,groupA
6.702951342109602,groupB
3.439595810977524,groupB
7.232975430681981,groupB
9.505883911692294,groupB
9.411936962478382,groupB
9.50613178472962,groupB
9.928718572903831,groupA
9.693295586935978,groupB
5.883717620210806,groupB
7.562732200909963,groupB
0.2970442464654688,groupB
7.54453376229435,groupB
4.836486850522144,groupB
9.699454576664627,groupB
1.8347051521482682,groupA
0.6968744860122811,groupA
8.004608800108459,groupB
3.821068283350899,groupA
9.243862477023166,groupB
9.331626261322583,groupB
1.940831742985778,groupB
3.6048252255855937,groupB
1.0544415427141463,groupA
5.984543588968101,groupB
3.373442370474274,groupB
1.6523634327351377,groupA
5.3240508698805,groupB
3.8273687775458285,groupB
7.579724102802019,groupB
4.747171742249865,groupB
7.089417117082794,groupB
7.843113708798766,groupB
9.496824988854765,groupB
9.582050046228579,groupB
6.779825519495453,groupB
4.857807221798235,groupB
1.7787874575901441,groupA
6.194790608862379,groupA
7.849722134069738,groupB
9.513445123428307,groupB
1.5619366909032295,groupA
6.334318165988599,groupA
5.391703814796459,groupA
1.2071381814017368,groupA
2.001706677077758,groupA
0.9819793901749407,groupA
2.4935984335783887,groupA
4.485018157557617,groupA
6.7176867986819495,groupA
7.900506473511614,groupA
8.23899754713897,groupB
3.040181509868071,groupA
5.999350991974795,groupB
8.222098411740426,groupB
7.247957023251649,groupB
6.4643794057405675,groupB
6.195463080070869,groupB
4.281538573455167,groupA
0.8358928877013438,groupA
3.3546513722741644,groupB
6.192185293248263,groupB
6.933465868296115,groupB
0.6499859735766744,groupA
3.8587107283968782,groupB
2.678838902840146,groupA
3.966839884154351,groupB
7.033442565652027,groupA
6.805456952291083,groupA
4.250218672769867,groupB
5.664935744396936,groupA
2.4722403098459136,groupA
9.227098894632423,groupB
0.8882390681192132,groupA
4.495382009159531,groupA
9.993799831534766,groupB
0.32332936260496936,groupA
2.4351196010389886,groupB
3.00996877639328,groupA
3.1033680637423577,groupB
4.200905915075391,groupB
7.0907105371357435,groupA
3.665193458799049,groupA
7.146549887604417,groupB
0.4676592813350744,groupA
8.357033030116392,groupB
2.0374501300595105,groupA
7.353895543150955,groupB
3.860976503226631,groupA
8.176581351799893,groupB
8.115891981441946,groupB
0.3280033672603466,groupB
1.4085011239634782,groupA
2.0740091376037295,groupB
0.5444727016824658,groupA
8.541257530114217,groupB
1.4832379855915157,groupA
3.0639354892026005,groupA
4.104484780923699,groupB
0.2828345243228714,groupA
4.825282614461374,groupB
8.924858230289429,groupB
8.850745778614314,groupA
5.280525401496049,groupA
4.925585260907091,groupB
8.498464704942206,groupB
9.327893391997451,groupB
2.3734615327051447,groupA
8.839831237997572,groupB
8.13662473052864,groupB
7.6062520078272575,groupB
4.667052124428993,groupB
9.727764367396546,groupB
7.810409518643537,groupB
4.616360306373691,groupA
7.696083956536201,groupA
7.368914635669292,groupB
6.0857753914468935,groupB
9.773221431778477,groupB
1.4845162188806749,groupA
1.2322986331821373,groupA
4.87193327319677,groupB
0.230099936108622,groupB
0.8433055794098054,groupA
3.986562822943538,groupA
4.117576437030967,groupA
3.570449264201372,groupA
3.706616490416371,groupA
8.708334255221706,groupB
6.367416055488546,groupA
3.3372542047854257,groupB
2.2817860846908644,groupB
5.5290219569483,groupB
4.041033817417301,groupB
6.732435467832223,groupB
9.882931759376776,groupB
8.571598551928258,groupB
3.5458017501443906,groupB
1.0344236827173847,groupA
9.729386431008527,groupA
0.25526749125672876,groupA
9.817156084548916,groupB
6.937775469059203,groupA
4.009224633987744,groupA
1.3425086184585777,groupA
9.868261343470282,groupB
6.991742504243501,groupB
9.019777369425759,groupA
3.3935834107129272,groupB
1.5461931786111827,groupA
8.700688610519107,groupB
8.179739021639195,groupB
7.9707791397199514,groupB
3.3960856082403943,groupB
9.462670333723302,groupB
0.7335092304812163,groupA
9.359785935539438,groupB
7.634891174067433,groupB
3.396519896651762,groupB
2.703800259366572,groupA
5.578719908448324,groupA
2.382857698672869,groupB
3.994378739394385,groupB
4.353047229715735,groupB
4.8252614455340925,groupB
2.9876991569744984,groupA
6.40650747141832,groupB
7.441298164286316,groupB
0.5367340001926291,groupA
9.341594081887942,groupB
5.707810851706119,groupA
6.865293329012467,groupB
0.14304948271769757,groupA
5.216249030940125,groupB
3.619056690520309,groupA
6.871392966507566,groupA
8.08335756811374,groupB
2.851688226945007,groupB
3.4871976385156556,groupB
7.588638826759678,groupB
8.407796023280623,groupB
7.199325274388838,groupB
8.71422128205417,groupB
4.856057769874255,groupA
2.438512897475873,groupA
7.552127087767319,groupB
1.827015712174821,groupA
5.5425957024913055,groupA
1.6304683743117476,groupA
2.8509272939998844,groupB
2.7850371505921934,groupB
3.194826554265402,groupA
9.5324690598998,groupA
1.1365939803133651,groupA
5.430076253513366,groupB
9.906581034523954,groupB
2.151309029316301,groupA
3.666921260768332,groupA
8.913815864610541,groupB
0.8893923811040139,groupA
6.084337857312372,groupB
2.7227120893947387,groupA
6.933638073698427,groupB
8.030436862019876,groupB
4.494576442199687,groupB
6.521168659142984,groupA
6.323451781573134,groupB
8.546458542247313,groupB
3.812760800823219,groupA
9.711820099536903,groupB
9.361137801747933,groupB
9.062789713360338,groupA
8.386208585755178,groupB
8.269904630065813,groupB
1.6632526526613145,groupB
4.544516746956612,groupA
6.047762948277905,groupB
0.18731829124150723,groupA
2.0553371139097654,groupB
4.554362997634094,groupB
7.6106147339693635,groupB
9.998538575882357,groupB
8.865755148079806,groupB
6.474986187234779,groupA
5.936591328299901,groupB
5.018757080160741,groupB
1.9443885922365756,groupA
0.3718773344401183,groupA
1.7753791187521395,groupA
3.2079315736071843,groupA
3.8254428457548295,groupB
2.940419300331043,groupA
0.7976691913279987,groupB
8.145485734009037,groupB
1.0255237269181317,groupA
6.924185582272793,groupB
8.882749345193458,groupB
1.887600460293597,groupB
5.9022344002573135,groupA
7.052239522718933,groupA
5.975638030812723,groupA
5.00781750900631,groupA
5.921772187545587,groupA
7.055806463720321,groupB
5.8743435150934165,groupB
8.261188532832321,groupB
4.942061305513689,groupB
3.917748038281367,groupA
3.7867775894879374,groupA
7.775307495954435,groupB
6.275321096720784,groupB
3.0040346338899706,groupB
2.0206037030428545,groupB
6.014930475610676,groupB
0.13381548390085873,groupA
0.04089617589433714,groupA
8.817929692582748,groupB
1.8908826948228619,groupB
5.586831546449549,groupB
5.544325929666316,groupB
6.169089701069117,groupA
3.032737059088586,groupA
5.586388265431239,groupB
2.883589612794263,groupA
9.95337314152206,groupB
1.5062007092169616,groupB
0.893224800840754,groupA
9.864661870857706,groupB
3.4457964607539147,groupA
6.061903836191677,groupA
7.011488569378478,groupB
3.8440567770221534,groupA
2.052931774241763,groupA
1.6277582734383655,groupB
6.397163969222995,groupB
3.8131267480686573,groupA
0.021242539968674423,groupA
2.3213532480494714,groupA
4.337368006880214,groupB
7.606074728697541,groupA
6.190920819742274,groupA
2.224906756708508,groupA
0.819649370845511,groupA
4.953932715269147,groupA
6.00817217640469,groupB
7.839695505675404,groupB
6.455545595787051,groupA
5.197617727164134,groupB
6.789367812478301,groupB
4.170077159942612,groupB
8.84285772799646,groupB
3.3456544675100885,groupB
6.45027360469869,groupA
9.273297262130884,groupB
6.617070114823237,groupB
7.1697534133557514,groupB
6.840268089425229,groupB
8.688155240931255,groupB
3.5435522969674302,groupA
7.121444645887834,groupA
8.69141124164994,groupA
5.104928213624669,groupB
0.24681288024875792,groupB
7.066381256785558,groupB
8.710471832776307,groupB
0.9860854264676511,groupA
9.188098407792122,groupB
7.804517914546959,groupB
1.1824338196833895,groupA
3.461450875716304,groupA
1.133741646176829,groupA
3.8026722861679154,groupB
7.759115322527141,groupA
4.9154314197334354,groupA
2.1683190507193597,groupA
1.8332095887540845,groupA
3.9877080965151155,groupA
7.3144092458667895,groupB
7.082069528111833,groupA
4.704834698351146,groupA
9.17135091138766,groupB
8.889748956557735,groupB
2.203130487909679,groupB
3.998427947422946,groupB
4.896099069855571,groupB
3.540261313278199,groupA
2.1726385810334414,groupA
8.786093741739036,groupB
5.023445330404444,groupA
3.8352820728953985,groupA
6.214098995139135,groupA
7.412334941468234,groupB
7.121203376335328,groupB
0.21739079547223983,groupA
9.785837648700825,groupB
2.343544642359139,groupA
8.643153004175117,groupB
1.6976198074551785,groupA
3.5037643499460613,groupB
3.230607612989661,groupB
5.093210865171852,groupA
6.624927601573326,groupB
8.476820791873816,groupB
6.157795656745511,groupA
6.8155979130833675,groupB
7.9586019532484595,groupB
3.023778811294393,groupA
1.641645762038887,groupB
3.799858505398804,groupA
2.6837912317626733,groupA
1.6707313125841106,groupB
5.462094845199523,groupA
7.308720445065601,groupB
3.7368990137072178,groupB
1.6156126774976698,groupA
3.6146094763203895,groupB
4.52650685232585,groupB
9.043268227539977,groupB
1.9601032968167542,groupA
0.41988520137262286,groupA
9.553678936153165,groupB
2.3523310923529914,groupB
6.139780851989912,groupB
0.5641821967753113,groupA
5.675461289107294,groupB
5.666818407282763,groupB
1.5385545018348123,groupA
6.109512738717731,groupB
0.11442415724461363,groupB
1.7281321557170504,groupB
2.380247998450671,groupB
6.443476674814156,groupB
1.6122228895640711,groupA
5.608705801534178,groupA
1.9943458713702245,groupB
6.962068420082242,groupA
1.8169873741344322,groupB
7.687008616211109,groupA
9.518874466919174,groupB
3.8175086431418315,groupA
5.19144766645166,groupA
1.6984264741683996,groupB
9.314330742421928,groupB
1.2331154215265494,groupB
6.082858458291005,groupA
4.065977332370605,groupA
0.8204651113906503,groupA
2.1981865210144136,groupA
0.7579566334007759,groupB
7.062809529189612,groupB
3.5132720710973464,groupB
6.41131236633861,groupB
2.122152141077226,groupA
3.6316141606042693,groupB
8.952188529766222,groupB
3.337776098128171,groupB
3.998228845167362,groupA
5.816050384583744,groupA
6.805458320992312,groupB
6.4767199074417725,groupB
4.191090831830668,groupA
9.021480594763485,groupB
8.081838582415193,groupB
4.281315217596314,groupA
3.0353799410720192,groupA
7.835828136800265,groupB
9.675004284515358,groupB
6.618832738871014,groupB
9.104664456920464,groupB
5.369137847665363,groupB
4.557608964668571,groupA
4.769472772443284,groupB
1.6157105459900012,groupA
1.319049919188715,groupA
0.578171614511942,groupA
0.40914813855528864,groupB
0.6191478135070871,groupA
5.889299597746752,groupB
3.5677600224561945,groupB
1.0618570698230057,groupB
0.1274871317987225,groupA
8.773655469120875,groupA
2.3255016218101456,groupB
8.495352968315368,groupB
5.160492131443412,groupB
8.506314607141391,groupB
0.7117546434478694,groupB
3.4167983861163154,groupB
3.522692758811764,groupB
6.253304512582946,groupB
6.443502360521315,groupB
6.643968483583103,groupB
4.673430246260195,groupB
5.603308961694051,groupB
4.885147343052215,groupA
9.31714130377911,groupA
6.980067826309267,groupA
1.9796635651525407,groupA
6.005088674294765,groupB
4.405563305970949,groupB
7.1024654631485005,groupB
0.15096194131116625,groupA
2.288713439362277,groupB
9.072605197933502,groupB
0.3528360666066799,groupA
9.022394370472313,groupB
7.5449231101069305,groupB
3.811409965949043,groupB
3.1897416604146978,groupA
9.844028026702947,groupA
0.7180058578003146,groupB
4.657778758094706,groupB
1.0870892470231097,groupA
7.4198414820008685,groupA
3.74026232272358,groupA
0.33272340482271345,groupB
9.886120166330773,groupB
6.430356842508312,groupB
8.57273039317699,groupB
6.5608373844985355,groupB
2.3768836104777815,groupA
4.0238056457311835,groupA
0.5398645306753358,groupA
5.8433874404687565,groupB
5.72061804168032,groupA
0.1613076953826298,groupA
4.24603841931665,groupB
7.021580588892484,groupA
8.839678411979445,groupB
3.4396769820539976,groupA
5.362966045000727,groupB
5.524343724593791,groupB
1.9596870981790326,groupB
9.224090738696587,groupB
8.712032086986827,groupB
1.3284107037580961,groupB
5.950824528176682,groupA
0.7085991169141814,groupA
6.867291855369748,groupB
7.53257373957735,groupA
5.311647883465735,groupB
1.1357126505982973,groupA
7.225483639371436,groupB
1.8223816282004879,groupB
1.8683902224994986,groupA
5.841219428073675,groupA
1.5995143565403847,groupA
5.829884110077954,groupB
3.292912932565286,groupA
7.384839740669742,groupB
5.080976871907329,groupB
1.9224669645065384,groupA
1.1096886100008774,groupA
1.9629761875829321,groupB
8.593527750373152,groupB
2.826457082471072,groupB
2.1714680298938127,groupA
4.102038252027597,groupA
7.349373496068873,groupB
9.839710908092075,groupB
8.808449418974874,groupB
2.668760330894484,groupA
9.67136182570658,groupB
9.441404800010869,groupB
9.639404160070743,groupB
0.22048630960809779,groupA
3.4177185468411766,groupA
3.6889421819733705,groupA
1.9866568868322354,groupA
0.21018336363510026,groupA
0.8285096536527281,groupA
5.817322822844436,groupB
0.040124727460592036,groupA
0.45839742932394234,groupA
4.004398390940138,groupB
1.4352425123361745,groupB
0.4176523302647528,groupB
4.351570117841808,groupA
8.649896689886758,groupB
6.248111419479564,groupA
9.087176549248225,groupB
3.511032226267271,groupA
1.1045678445241491,groupA
0.5283858467339553,groupA
4.237177968727765,groupB
2.1311901445882766,groupB
5.204671464092721,groupB
6.889093283739021,groupB
7.560485168208201,groupB
6.084318589375628,groupB
0.04156596793109091,groupA
3.1819672561627357,groupB
8.47661929682079,groupB
1.3521270450229872,groupA
5.307454036167499,groupB
4.515726009379301,groupB
9.452100884047317,groupB
0.8337389060254385,groupB
7.458245357027716,groupB
4.044969665506423,groupB
6.147776860482887,groupA
5.402579623360889,groupB
1.4106305565190136,groupA
8.98196766091178,groupB
9.457389612906374,groupB
0.8912869497291376,groupA
9.677840490554049,groupB
7.492021410664447,groupB
1.4010818303773298,groupA
3.9682782372125702,groupA
3.7067289446956933,groupB
1.1016282536204447,groupA
7.568933147372397,groupB
5.46993158830328,groupA
2.3972054140450814,groupB
1.9246199973255762,groupA
2.6092428688286615,groupA
3.3500884441362166,groupB
6.271876483567659,groupA
1.4357958177449015,groupB
4.82922930260698,groupA
0.02917247633392739,groupA
5.145951845900115,groupA
8.329109768690003,groupB
1.9958935276806988,groupA
1.437767958922248,groupB
4.27078195099026,groupA
3.916698138030692,groupA
4.034612589625065,groupA
0.6669076914139427,groupA
2.3532261107597274,groupB
9.878216590487707,groupB
3.633885488351536,groupA
5.916232060090415,groupB
2.370641371325153,groupA
1.373125196390237,groupA
2.356639576513979,groupA
5.771976763171271,groupA
7.209561046287231,groupB
8.591461727441574,groupB
5.280452451879626,groupB
9.993571088719618,groupB
0.5758241543277354,groupA
7.844800699882361,groupB
9.458520248043698,groupA
8.528383551677186,groupB
4.794447606326452,groupB
3.985788938030673,groupB
1.5965454023377457,groupB
7.840457677517705,groupB
0.6971424837340157,groupA
5.082859064012873,groupB
4.7329933300273925,groupB
1.6063404673025405,groupA
7.160969434595286,groupB
7.251255374951774,groupB
6.81522228541704,groupB
2.0184711472172956,groupA
4.608965015241074,groupB
7.830850583995204,groupA
0.77438172822065,groupA
0.3069212534653398,groupB
5.227049046886575,groupB
2.777654719788335,groupA
3.879047324962537,groupA
7.450255240198177,groupA
4.324385977893997,groupA
4.365460326937887,groupB
7.121385199479189,groupA
2.546245946579482,groupA
0.4185591346156825,groupA
6.836451757425666,groupB
4.45903929749306,groupA
0.9473176470468692,groupA
3.733116800271673,groupA
5.348393264548369,groupA
8.66850256677891,groupB
3.3717662672423865,groupB
3.0427497359202116,groupB
0.8884315742778415,groupA
0.0977826405902027,groupA
1.9616710012097205,groupB
2.598716737317038,groupB
5.300644272465459,groupB
6.942792128960312,groupB
8.197353956837036,groupB
4.341153070053813,groupB
4.340970663838606,groupB
8.98689324950325,groupB
9.065402785791473,groupB
5.101236854368865,groupB
6.9576389349184256,groupA
9.679025425512535,groupA
2.625542892176007,groupA
5.0793240862933695,groupA
8.619863762732457,groupB
5.594110727273499,groupA
7.687656494721157,groupB
7.838301293609511,groupB
9.398490075315832,groupB
4.800096756949048,groupA
7.594411961537705,groupB
5.376481273947974,groupB
1.1491501792812686,groupA
1.497868014923286,groupA
7.851392771732119,groupB
5.762100839512988,groupB
6.164890171508011,groupB
9.020895126292718,groupB
6.643235016634233,groupB
8.261316200320232,groupB
4.248398470311337,groupA
5.367262375364248,groupB
6.05269186703262,groupB
9.031736546749524,groupB
9.594916142102836,groupB
8.842665313110231,groupB
7.335170601008031,groupA
3.1609402475212245,groupB
0.06042693137810806,groupA
8.042934283875033,groupB
3.013251940736387,groupA
9.199789833589834,groupB
2.2942966171671895,groupB
2.691216828236099,groupB
1.3068971814898167,groupA
5.18814234559966,groupB
8.41345233822339,groupB
5.129439329224316,groupB
8.812121222277646,groupB
9.528963918358023,groupB
6.05245069541938,groupB
7.376162067132922,groupB
7.034247587869706,groupB
1.6878349959561822,groupA
1.7145816096908462E-4,groupB
4.402273497828459,groupA
8.8656005420801,groupB
1.5490813733545317,groupA
2.5828775666546946,groupB
9.90970132855837,groupB
6.209530388583875,groupB
9.036767545475318,groupB
2.4223023012444402,groupA
8.662790457222336,groupB
8.374638718535625,groupB
8.216684255834663,groupB
9.227239616195593,groupB
7.022292094481881,groupB
8.620373862172379,groupA
0.1612890844989212,groupA
1.5026197195434188,groupA
6.441830525574975,groupA
9.196936081386108,groupB
3.2289324764132843,groupB
6.209748158432696,groupB
9.448876455616329,groupB
1.601559369127492,groupA
6.646147308593262,groupB
4.807541696893848,groupA
3.157956864371826,groupA
1.626359269972929,groupA
6.170453345274609,groupB
0.1632261496626808,groupB
6.23315805171497,groupB
8.500462092394493,groupB
8.653012118864563,groupA
8.55183659638785,groupB
3.9787728103163467,groupB
4.275164388382997,groupA
4.236238840102336,groupA
1.4704875965507025,groupB
5.908760696229789,groupA
6.153350150235372,groupB
1.1506169166102997,groupA
2.9730350501975176,groupA
6.713872040731529,groupB
8.154915198464616,groupA
3.2756537235662897,groupA
0.47444099181027655,groupA
6.464918032376,groupA
4.1139339204412,groupB
6.179110365879756,groupB
4.866648748526421,groupA
8.585552530429254,groupA
6.139871266243382,groupB
3.842061008907419,groupB
9.807585479441268,groupB
4.4906785473271,groupA
8.307206497015379,groupB
8.029420114090835,groupB
9.264313021844135,groupB
4.678503473964937,groupB
6.272014850983392,groupB
1.8095233181384907,groupA
6.976340416408418,groupB
5.815433995911285,groupB
8.900742833055991,groupA
1.314128055689473,groupA
5.215484836396244,groupB
8.262250621336749,groupB
6.829775749303946,groupB
7.93250446501787,groupB
2.9079065220282296,groupA
5.324911573337383,groupB
6.492280119600324,groupA
0.9395619293254653,groupB
3.2993438293879596,groupB
4.010225022929498,groupB
2.7328995343187024,groupA
6.476431016821361,groupB
8.42713043794129,groupB
2.4305950839046,groupA
2.2065316654782974,groupB
7.959510669398772,groupB
4.847061297213773,groupB
4.406898232471241,groupB
6.693802456943629,groupB
9.736439888804501,groupB
1.578106693232132,groupB
0.9068687571925216,groupA
5.9758332970516825,groupB
6.19917545845232,groupB
4.895615551253471,groupA
7.339505810140208,groupB
4.551138881232002,groupB
2.8885887114922824,groupB
4.340012062820625,groupA
7.484007625758776,groupA
3.148360502176648,groupB
1.3836702283905733,groupA
2.622848178575924,groupA
9.01345632940534,groupB
2.4342071413821897,groupB
2.1822510653560636,groupB
7.608943811988388,groupB
2.6964646874381715,groupB
2.6242923092944457,groupA
7.288586969085344,groupB
4.42947240322353,groupA
0.9106050044838909,groupA
3.8071989879542767,groupB
8.984384330035663,groupB
8.327288231929149,groupB
0.03473398745025835,groupA
9.964444204007012,groupA
2.1508487320674483,groupA
5.937258063290241,groupA
2.527146109408821,groupA
7.030198654122558,groupB
2.6257995895898203,groupB
2.3394159963918435,groupA
5.435394459229084,groupB
6.347527721309572,groupB
3.2362710184756804,groupB
9.963637683532815,groupB
3.082958177523066,groupB
8.849223511637707,groupB
6.376523537642519,groupB
0.9372692204954758,groupA
8.56777348109518,groupB
8.87133614618981,groupB
8.055960430810735,groupB
8.011488341490725,groupB
5.286814144257662,groupA
6.190487927026372,groupB
3.191792728483974,groupA
8.131665421147847,groupA
0.23698973388864508,groupA
9.49980073030716,groupB
7.256878675811658,groupA
2.978863123486927,groupA
2.571944083225064,groupA
7.7844646753707325,groupB
1.122170954972368,groupB
9.444911510415404,groupA
6.521968457528763,groupB
8.951994639740372,groupB
6.68260423802762,groupB
0.6469615774751691,groupB
7.984022012826989,groupA
8.483208906379641,groupB
2.470741879313918,groupA
1.4675887500647544,groupA
0.0033475915227776376,groupB
8.010810651531276,groupB
4.508529575108056,groupB
7.045641735571472,groupB
8.108718215007539,groupB
2.6597993774794118,groupA
5.907272390221431,groupB
4.557130998840338,groupA
1.6100244037940248,groupA
2.0981722715308537,groupA
3.7014312149104045,groupB
8.024295940954147,groupB
9.06854605092744,groupB
8.791641812420465,groupB
6.81369969607362,groupB
8.878087451936999,groupA
3.2244147587229266,groupB
5.520283721995073,groupB
0.33655409203979914,groupA
6.27192203332637,groupA
3.6988014683954065,groupB
5.229771450543668,groupB
8.137253030438979,groupB
6.493725781665209,groupB
1.2353330537002905,groupA
9.530562325938387,groupB
4.526058357272796,groupA
9.633746501339804,groupB
9.529977502457378,groupB
7.244181651029075,groupB
1.9669622053769975,groupA
9.415897056873694,groupB
4.713720112447003,groupB
3.2895380742796823,groupB
2.870873018409501,groupB
2.8627598953858433,groupB
6.159112274837107,groupA
7.710595192345506,groupB
0.926272269571955,groupA
5.40484766210308,groupB
8.810284129597829,groupB
8.920143938867763,groupB
9.4437116064307,groupB
2.9230531545606664,groupB
7.985106687673761,groupB
8.266987043917824,groupB
8.288924952596076,groupB
9.882934447380578,groupB
4.335437818595581,groupA
1.1634657302478058,groupA
6.344201847167867,groupB
5.627847065546398,groupA
4.113126288144292,groupB
4.418557861416535,groupA
6.47722721285329,groupA
3.585957697484623,groupB
8.280752860883954,groupB
8.63415739038865,groupB
4.837788344916859,groupA
8.74863337332744,groupB
1.50078184518308,groupB
6.907745971027911,groupB
5.291280319094653,groupA
1.5230978454076627,groupB
7.277472143727065,groupB
7.35636505119515,groupB
3.998269053333139,groupA
3.77285293379229,groupA
0.12385608692214611,groupA
2.691259761174738,groupA
3.8446902288797946,groupA
9.451205456010282,groupB
6.66145388927593,groupB
8.130154688548505,groupA
5.619527886932265,groupA
5.216057860015986,groupB
0.08193021226291064,groupA
2.078999228417561,groupA
3.746742443611052,groupB
9.391458813187887,groupB
1.9252503962484568,groupA
7.3350642707732145,groupB
1.9452339191066648,groupA
2.810517323542122,groupA
0.14433355884414523,groupA
3.9901290837771985,groupB
5.572967746117694,groupA
5.726169457261689,groupA
6.886845204593128,groupB
6.021556031037302,groupB
6.485973295283735,groupB
7.995744238354407,groupB
5.254425220087161,groupB
8.869455438633567,groupB
6.105487410189342,groupA
8.110784281840369,groupB
3.8909110867177263,groupB
4.572772899967868,groupB
7.8514908298391735,groupA
1.9274317496098703,groupA
6.965286312551374,groupB
8.582647082940689,groupB
0.20147065707063927,groupB
6.820893178287934,groupA
5.782271305473444,groupA
9.83815394450398,groupB
2.121416238460241,groupA
7.699810513864916,groupB
5.6724917643080754,groupB
4.57173700124065,groupA
8.462498935508687,groupB
0.2263230826861362,groupA
7.252575030193123,groupA
8.447096936601401,groupB
0.8110519221383672,groupA
4.642446499614996,groupB
6.839692496663727,groupB
9.70272424862969,groupB
0.1295794290289798,groupA
2.844158494915784,groupB
4.460034816701902,groupA
4.005000382066517,groupA
8.959511572358647,groupB
7.406020682532598,groupA
5.1803346941668105,groupA
5.574995067331438,groupA
9.81800252414445,groupB
5.869799391092558,groupB
6.558386703782817,groupB
7.055658021403822,groupB
1.2756885287672615,groupB
7.092641524875578,groupA
0.9639047011308721,groupA
5.58766297835794,groupB
6.833195998268645,groupB
6.833195998268645,groupB
0.21993101460527686,groupB
0.9450801696409994,groupA
5.063116418147145,groupB
3.623246580283096,groupA
5.914764143145942,groupB
1.257678531777917,groupA
4.770829125895463,groupB
6.873178697139723,groupB
4.943544950091087,groupA
5.650014252882506,groupA
5.222751951580386,groupB
2.409025611303891,groupA
0.7827976739552478,groupA
5.9950267988696515,groupB
0.2901440652418541,groupA
7.925166068159054,groupB
1.3669164137849599,groupB
7.334981036132295,groupB
5.655459150622368,groupB
5.659954610466756,groupA
4.825004645542518,groupA
4.278904384323409,groupB
1.6209504034570477,groupA
5.103343254309932,groupB
5.535712260067127,groupB
1.8602944906788743,groupA
0.47048453325276296,groupA
6.7317732759962965,groupA
9.134307521496567,groupB
0.2842350734680732,groupA
6.663675403278285,groupB
3.0517612803452154,groupA
8.402163353575286,groupA
6.298915196864615,groupA
1.3015853749134898,groupB
4.688561248489812,groupB
0.015135885350513467,groupA
0.5154758605978538,groupA
9.535025782447542,groupB
9.350778544642434,groupB
4.777504252551163,groupB
6.6397112099007245,groupB
2.2278226423924785,groupA
4.425282187708629,groupA
9.669461058912928,groupB
5.005727863431569,groupA
7.419941049548868,groupB
8.1174095733292,groupA
8.329652906398312,groupB
4.220317715014529,groupB
6.484450737826634,groupB
4.576248069976646,groupA
0.6146823831859183,groupA
4.311335409786002,groupA
7.707138981030232,groupB
9.679408250067938,groupB
0.8533564504280189,groupA
6.1663939709595645,groupA
2.05099810309493,groupA
2.1606143534670617,groupA
6.167044829019368,groupB
1.8609935041297665,groupA
2.6564858400737803,groupB
9.829858503750357,groupB
9.674811035957667,groupB
0.7878972137415252,groupA
9.072777006728032,groupA
9.761723824579633,groupB
1.0527819393322446,groupA
7.360964458536329,groupB
7.059309946674287,groupB
0.733497943332112,groupA
7.375013316575323,groupB
7.994324865897574,groupB
5.128701284237184,groupB
3.8203106515775174,groupB
7.625193719982084,groupA
1.538081319460084,groupA
4.753174518580975,groupA
5.057961707334644,groupB
3.0258804123024694,groupA
7.339705010756478,groupA
4.602430855729295,groupB
1.3422890652079567,groupA
4.269388823403175,groupB
5.519790328833913,groupB
2.44050406529548,groupA
5.342573105680353,groupB
3.830430844440307,groupB
2.294440198767332,groupA
5.845502544908499,groupB
6.980048738492286,groupB
3.367428710754826,groupA
9.60556879714767,groupB
4.0358643747098615,groupA
1.9942754354807746,groupA
0.44309041413913564,groupB
8.764942132063243,groupA
4.440247922055589,groupB
3.0418823598753475,groupA
6.675133468474403,groupB
6.675133468474403,groupB
6.076630407009605,groupA
5.7295744479400055,groupB
5.614740068833751,groupA
8.318448806199548,groupB
8.74331644450638,groupB
2.6769383551509285,groupA
1.51737576413557,groupA
6.1278228381199895,groupB
9.020904111762553,groupB
1.1057252100148685,groupA
2.6146496075065127,groupA
1.1965628667034467,groupB
6.268194330620993,groupB
4.353740095347551,groupA
9.677295068700623,groupB
7.94577715863281,groupB
0.9178593031037174,groupA
6.990571355520746,groupA
7.26059732013825,groupA
1.28016359442372,groupB
2.614125415274234,groupA
0.18969999888159284,groupB
9.21470230080185,groupB
7.451229050031629,groupB
0.9328188430070328,groupB
4.232647490933019,groupB
8.427007094551174,groupB
3.7938906537233064,groupB
0.8007813986258605,groupA
2.510125530016929,groupB
3.2397434939871905,groupB
1.2371981499814744,groupB
3.512987608276058,groupB
3.3288579257629856,groupB
5.389925541091504,groupB
1.4379466375138605,groupA
6.124548070820718,groupB
8.420362803121028,groupB
5.7237478022958035,groupA
2.24451035273305,groupB
7.957495492278058,groupB
2.711174369726085,groupB
4.001491726349907,groupB
6.758325783209052,groupB
9.46390620529369,groupB
8.428115990645548,groupB
8.428115990645548,groupB
4.2089841193166775,groupB
1.9068491296589918,groupA
0.15133895805601094,groupA
7.5964682745256615,groupB
2.523344190658433,groupB
7.653037909220912,groupB
7.653037909220912,groupA
3.5963345095564647,groupB
2.4060922357772627,groupB
8.758623923921835,groupB
1.8147071829449057,groupA
6.608175778866681,groupB
9.577396420904698,groupB
5.274178513358451,groupA
3.118516504293365,groupA
9.688296230847595,groupB
6.9059006480185126,groupA
8.217160820088665,groupB
5.327620143231613,groupB
8.359513189560602,groupB
1.5951467631261518,groupB
2.0611195018071307,groupA
2.9126595870208662,groupA
1.4811950320402778,groupA
7.140765337650712,groupA
8.884741922172637,groupB
7.230081145997768,groupA
8.057900651792838,groupA
9.585244252604364,groupB
2.116528587100653,groupB
6.070728639247324,groupB
8.495018781761209,groupB
3.4487653316238376,groupA
0.6795698359475,groupA
6.880048012603761,groupB
7.929323567072987,groupA
0.9255051743869125,groupB
2.9513149064257416,groupB
9.157580944279173,groupB
6.807713762361911,groupB
5.729944799484982,groupB
1.770733370451285,groupA
7.3399737019895674,groupB
8.915066135992426,groupB
0.8406201501007016,groupA
7.16278048857232,groupB
5.774491696470131,groupA
6.642162881478715,groupB
0.21978136432038275,groupA
0.21978136432038275,groupB
4.509533548196531,groupB
9.708805853264789,groupB
2.485894746522175,groupB
1.1307363655145752,groupA
3.7994698746390885,groupB
4.161077072285161,groupB
0.10396919759432355,groupA
1.0181431811532204,groupB
3.270571527263335,groupA
8.289412756859997,groupB
6.191485874349092,groupB
0.9918018992771294,groupA
5.387463362311733,groupB
9.742601724829376,groupB
9.962071182330902,groupB
4.037002761488891,groupB
8.534566095925909,groupB
8.329414681593036,groupB
2.0256092297390405,groupA
7.2833197249194805,groupA
7.161992744761809,groupB
4.170214677758498,groupB
1.3505502650675427,groupB
3.461814509299288,groupB
1.2030790914405887,groupA
1.2030790914405887,groupB
3.8644108813628852,groupB
3.142643366700615,groupB
1.3745600217381015,groupB
1.425218396058161,groupB
1.7864264670383978,groupB
2.69381183813034,groupB
0.44061180632667285,groupA
6.7310204583440045,groupB
8.671110199494386,groupB
9.353590543651345,groupB
1.6631581186733524,groupA
7.265459266853849,groupB
8.520406732344574,groupB
0.018656057434293105,groupA
0.5215099309595128,groupA
0.19601348062909252,groupB
8.50388774229958,groupB
5.1598270769923085,groupA
5.010424624119172,groupA
4.125118310439663,groupA
6.977442611779235,groupB
0.11557763197259208,groupA
0.35344679171172344,groupB
0.8944066680553109,groupB
7.641805927532511,groupB
5.8504096286941065,groupB
6.6755830693234275,groupB
6.894000424458312,groupA
4.934169294206646,groupB
2.74796521757629,groupB
5.346638012245597,groupA
8.4619115678069,groupB
7.314155924140216,groupB
7.39383103717827,groupA
6.856537058316713,groupB
0.33167220718696266,groupA
2.5859466044383472,groupA
0.28169820090723885,groupA
8.358351716779417,groupA
1.8625632576884577,groupB
7.80108704042675,groupB
4.497702150057432,groupB
2.657665543080717,groupA
1.68696894780752,groupA
6.715020415586465,groupB
4.718963962885271,groupA
5.026263751911207,groupA
7.872887321744184,groupB
9.921909356412622,groupB
8.289910468258414,groupA
7.205529077193665,groupB
2.38470058842572,groupA
7.457877235319733,groupB
7.168954961685637,groupB
4.115783591282687,groupB
6.908876000459801,groupB
5.227174958487652,groupB
0.5923853767164877,groupA
2.7212691626065544,groupA
2.589071435838571,groupA
5.547459448330234,groupA
3.274419540531479,groupB
1.1793847382144484,groupA
1.1793847382144484,groupB
1.2015662978279673,groupA
7.501647639027062,groupB
5.713680783999184,groupA
1.6338611807112846,groupA
6.330271208305227,groupB
4.790684238139433,groupB
0.03688524980141494,groupA
0.9451184024775761,groupB
3.4227249294890827,groupB
1.1637996565693798,groupA
3.0791594361393084,groupA
9.281285531095078,groupA
9.695154978763581,groupB
6.113960775292956,groupA
4.844685644562109,groupA
8.158123212764533,groupB
2.8953440921705687,groupA
4.813479280712692,groupB
4.847645250894938,groupB
3.3970617194561603,groupA
0.3348821341377828,groupB
5.7691831293227755,groupB
6.306762370304208,groupB
8.09308864089021,groupB
1.4943530259003857,groupB
0.5329150502432567,groupA
1.930984644355176,groupA
9.417486175195819,groupB
3.23183229280948,groupB
1.239923483367652,groupA
8.731530982284966,groupB
6.637270160084858,groupA
2.251160677545262,groupA
1.587235429100381,groupA
9.538041085528214,groupB
6.6703031443782566,groupB
5.295078282464232,groupB
4.022333128611589,groupB
7.763940978329065,groupB
5.712792769154833,groupB
0.5213394231700386,groupA
2.899197475509616,groupA
9.507217707622472,groupB
8.718431015991467,groupB
9.91813776064543,groupB
8.777511378581552,groupB
3.805172081856014,groupA
2.863620410098231,groupA
0.35797050700505095,groupA
0.0888370331219468,groupA
1.2716897844265018,groupA
1.532751977820247,groupB
2.134691607016017,groupB
3.361874591706633,groupA
2.388253370234951,groupA
4.076714075133141,groupB
7.453867463016644,groupA
3.9722646334090705,groupB
6.319097973838128,groupA
5.755870483278176,groupB
5.447397271525649,groupB
3.9393229963606045,groupA
6.669205328322178,groupA
6.338533456656111,groupA
4.674104401547423,groupA
8.204849772975312,groupB
2.4625399029518382,groupB
4.094130459275807,groupA
2.781889043320862,groupB
3.763764956120841,groupA
6.617145879777345,groupB
1.0471854937084235,groupA
6.795973952067756,groupB
8.232550769019397,groupA
4.132268839607547,groupB
1.838076339486121,groupB
6.332502690043757,groupA
3.2928283170843633,groupA
2.3481192455322475,groupA
1.2071606929511824,groupA
7.6067040762564275,groupB
9.88116351434373,groupA
3.2275899409659425,groupB
7.661928750637147,groupA
4.318219504509515,groupB
3.0533503015208696,groupB
5.346241034714162,groupB
4.327737316924118,groupA
4.979967644918402,groupA
5.766776424774621,groupB
1.836023628471971,groupA
3.1905434693882526,groupB
6.8567767532529,groupA
9.126508040236509,groupB
1.0520788074176224,groupB
9.127775778591873,groupB
7.9604203293959515,groupB
7.25173755115852,groupB
3.331878583231782,groupB
3.3477031956778314,groupB
8.29184321350682,groupB
4.255208620006129,groupB
9.472014891787424,groupB
7.5187678786331755,groupB
4.231203824356622,groupB
8.898951592330546,groupA
2.0089623128108736,groupA
5.212494498185323,groupA
9.372614978216793,groupB
5.398636225092389,groupA
7.0736674899214975,groupA
3.8946426551962254,groupA
6.622561187809389,groupB
1.2933451898438175,groupA
1.2933451898438175,groupA
3.4822291327304122,groupA
1.010898698967303,groupA
9.68713503869356,groupB
1.068604505306,groupA
3.281274981962503,groupA
3.281274981962503,groupA
1.5009719726594528,groupB
3.5404029298654125,groupB
6.702847548175271,groupB
8.610746681282812,groupB
0.9576301646673746,groupA
8.690096861751083,groupB
8.979641778719822,groupB
8.37127370617763,groupA
8.37127370617763,groupB
8.37127370617763,groupA
0.587863662230812,groupB
0.35187842539634806,groupA
0.3422573747108515,groupA
2.6494384395919877,groupA
3.9386345187592733,groupA
2.542846533832659,groupA
2.542846533832659,groupA
6.429491579861816,groupB
6.492129550466044,groupB
5.16996463194594,groupB
6.860700328693659,groupA
7.981875824679935,groupB
8.729641739932639,groupB
8.487558131603635,groupB
3.7977455783453795,groupB
2.398984905368733,groupA
7.893812626129488,groupB
4.523641152365006,groupA
0.03817792845774326,groupA
8.30880255822476,groupB
0.5985921719308451,groupB
3.1598869941962224,groupA
1.7110151455965428,groupB
1.7110151455965428,groupA
1.6199993140362823,groupA
8.25113076678956,groupA
2.0455416587077844,groupA
2.0455416587077844,groupA
2.0455416587077844,groupA
1.1466161491809246,groupA
1.1466161491809246,groupB
5.802312805537832,groupB
3.815530725311066,groupA
4.246341446427477,groupB
2.6576330028794692,groupA
6.807490182007795,groupB
0.2014657763600225,groupA
7.778392003328256,groupB
7.778392003328256,groupA
2.299943591278597,groupA
6.925739163050169,groupB
7.307201425149278,groupB
9.792512152156675,groupB
2.748807897192428,groupB
5.88634435621301,groupA
5.88634435621301,groupB
2.8912850478914365,groupA
1.779007902048153,groupA
9.352130109960306,groupB
9.165806385630411,groupB
8.328091741251939,groupB
2.1046019420715734,groupA
2.1046019420715734,groupA
8.317010083688022,groupB
6.366069021322369,groupA
9.437130836933143,groupB
3.560153119406438,groupB
3.560153119406438,groupA
5.787162376408289,groupA
8.866380000266915,groupA
3.450840653354792,groupA
6.321540298477163,groupA
4.43548748988171,groupB
9.02610042032563,groupB
9.75561279723529,groupB
8.082016684711697,groupB
6.005050786264878,groupB
9.907101172611561,groupB
6.229821385996416,groupA
0.22161733232833325,groupA
7.078654251686615,groupB
7.771772814402883,groupB
7.203265148604231,groupB
1.2007120296527396,groupB
1.2007120296527396,groupA
6.056534486060528,groupB
1.0684046181331397,groupA
8.635980652856748,groupB
0.2071836762304069,groupB
0.2071836762304069,groupB
0.2071836762304069,groupB
0.9066871623147599,groupA
1.9057672221081956,groupA
1.8909486912406526,groupB
1.8909486912406526,groupB
7.100355026218123,groupA
5.474867301699964,groupA
5.402922321033159,groupB
8.253597479128757,groupB
0.3738479621430024,groupA
1.9721205221301163,groupB
1.9721205221301163,groupA
1.9721205221301163,groupB
1.132111079059861,groupA
1.132111079059861,groupA
1.3988143786253138,groupA
1.3988143786253138,groupA
7.041905965861344,groupB
5.386261121970126,groupB
0.09929797721162537,groupA
6.559700530194883,groupB
5.720993691634181,groupB
2.898184112122423,groupA
2.3695748202863243,groupA
0.9166686155800252,groupB
0.9166686155800252,groupA
2.7561120290803665,groupB
5.551268639875814,groupB
0.17795306069294803,groupA
5.374462455216803,groupB
6.898333680848036,groupB
7.268081641722812,groupB
7.268081641722812,groupA
0.898575682477335,groupB
9.570909038938339,groupB
8.989519578571656,groupB
6.397594301669556,groupA
3.899352245800467,groupA
8.775966051672132,groupB
2.40860379838339,groupB
0.09135595704038657,groupB
6.50045975618145,groupB
7.873030136067368,groupB
8.08166917316919,groupB
1.4505196818500399,groupA
1.993845786510361,groupB
6.415318714057998,groupA
4.8993935949964715,groupB
2.277949227563468,groupA
8.07030524062344,groupB
2.836021571580911,groupB
5.008227132842972,groupB
0.8503363656449314,groupA
6.7381691429085,groupB
6.7381691429085,groupB
6.7381691429085,groupB
1.248164192802902,groupB
1.0774986387991325,groupA
9.052509667478695,groupB
9.052509667478695,groupB
9.052509667478695,groupB
7.694152104662471,groupA
7.694152104662471,groupB
2.3538161083449105,groupA
2.3538161083449105,groupB
2.3538161083449105,groupB
4.068949214376457,groupA
7.866881920489188,groupB
0.5072015480939129,groupA
0.5072015480939129,groupA
0.5072015480939129,groupA
0.5072015480939129,groupB
0.21622457247559845,groupA
0.21622457247559845,groupA
9.86707177650614,groupB
5.180958046895089,groupB
5.180958046895089,groupB
5.180958046895089,groupA
7.378828304438304,groupB
8.9252669186153,groupB
8.331007628433731,groupB
8.331007628433731,groupB
8.331007628433731,groupB
7.479476996095674,groupB
6.720602379431375,groupB
0.3675801670621248,groupB
0.3675801670621248,groupB
0.3675801670621248,groupA
0.708243073895718,groupA
3.7582710985970524,groupB
8.507311245527466,groupB
4.727965703410147,groupA
0.05736101702859209,groupA
9.186264753949146,groupB
9.186264753949146,groupB
9.08245653970705,groupB
5.2969732413749835,groupB
3.3557616082666097,groupB
0.1209053096367696,groupB
5.664825321176725,groupA
5.408537726783197,groupB
4.656478760631116,groupB
5.240157095391074,groupB
7.678074719042268,groupB
7.617502654526924,groupB
7.617502654526924,groupA
2.1876131163696986,groupA
8.199219859932423,groupA
2.7406459664769023,groupA
8.754883719788634,groupB
8.754883719788634,groupB
2.183879325882443,groupB
0.4792962779592447,groupB
2.8456157187083306,groupA
2.442647570824091,groupA
1.871449384229119,groupB
3.314730624440252,groupA
0.15784179694384393,groupA
6.652158668818956,groupB
6.652158668818956,groupB
9.107580625056723,groupB
0.8281425020705668,groupB
9.781207942854433,groupA
4.562648352673606,groupB
7.26206098300157,groupB
3.05396055636602,groupA
7.717956781266778,groupB
4.3981138750047215,groupA
4.3981138750047215,groupA
8.91869434846349,groupB
4.391000298673622,groupA
8.56476507512128,groupB
8.14183544555945,groupB
8.616013198892668,groupB
6.4151233493479936,groupB
7.869895107492908,groupB
0.5647499140366552,groupA
3.2250515809211477,groupB
3.2250515809211477,groupA
3.2250515809211477,groupB
3.2250515809211477,groupB
3.2250515809211477,groupA
3.2250515809211477,groupA
3.2250515809211477,groupB
3.2250515809211477,groupA
1.8430015863467553,groupB
5.709705827305011,groupB
2.343590750357939,groupA
2.343590750357939,groupA
3.609956503991648,groupA
0.9258143189122747,groupA
9.222041066092165,groupB
3.1420625513133205,groupB
3.1420625513133205,groupB
5.209870526107618,groupA
5.209870526107618,groupB
5.209870526107618,groupB
1.5442672191760032,groupA
4.443306480205841,groupA
4.443306480205841,groupA
4.443306480205841,groupB
9.307192985746383,groupA
9.307192985746383,groupA
9.307192985746383,groupB
0.23701483748007068,groupA
7.869346936603069,groupB
7.869346936603069,groupB
7.869346936603069,groupB
9.813909693003309,groupB
3.685984900676033,groupA
4.769130677826158,groupA
4.769130677826158,groupA
4.769130677826158,groupB
4.769130677826158,groupB
4.769130677826158,groupB
4.769130677826158,groupA
4.769130677826158,groupA
9.46116664821993,groupB
1.7154238744631456,groupA
1.7154238744631456,groupB
2.3558805964569496,groupA
2.3558805964569496,groupB
2.3558805964569496,groupB
9.431040160458776,groupB
7.134321435599529,groupA
4.048392564796063,groupA
4.048392564796063,groupB
0.6164638292454361,groupB
9.260452866239305,groupB
9.260452866239305,groupB
4.574306489976939,groupB
4.574306489976939,groupB
4.574306489976939,groupB
4.574306489976939,groupB
4.574306489976939,groupB
0.41184924439001014,groupA
2.20804557629551,groupB
2.20804557629551,groupB
2.20804557629551,groupB
3.2314228623855277,groupA
5.5164654380657865,groupA
5.5164654380657865,groupB
6.257919433123506,groupB
5.6729326661400155,groupB
5.6729326661400155,groupB
5.6729326661400155,groupA
5.602924813756305,groupB
5.602924813756305,groupB
5.602924813756305,groupA
5.602924813756305,groupB
5.602924813756305,groupA
5.602924813756305,groupB
5.602924813756305,groupB
6.98607368170376,groupA
5.414565382671199,groupB
5.414565382671199,groupA
7.293547062019514,groupA
7.293547062019514,groupB
3.451524548699573,groupB
5.553740416535314,groupB
5.553740416535314,groupB
5.553740416535314,groupA
5.553740416535314,groupA
5.553740416535314,groupA
5.553740416535314,groupB
5.553740416535314,groupB
5.553740416535314,groupB
7.637639814761743,groupA
7.637639814761743,groupB
3.8332701232621877,groupB
8.461455222358417,groupB
8.411268500107083,groupB
8.411268500107083,groupB
8.411268500107083,groupB
8.411268500107083,groupA
2.0046947873471908,groupB
2.0046947873471908,groupB
1.0447111228492445,groupB
1.0447111228492445,groupB
7.151703638612041,groupA
6.165161994304759,groupB
6.165161994304759,groupA
6.165161994304759,groupA
1.725972459537658,groupA
6.7386692170566445,groupB
6.7386692170566445,groupB
5.430878531131532,groupB
3.142562737950919,groupA
4.644941992564638,groupA
4.236665949816895,groupA
4.236665949816895,groupA
8.743283938279408,groupB
1.4907312486879043,groupA
6.747655118589316,groupB
6.747655118589316,groupB
2.840656943390073,groupB
3.5041710549368377,groupB
1.928221289465546,groupB
1.928221289465546,groupA
3.4068550325829228,groupA
3.4068550325829228,groupA
4.094233844106908,groupA
4.2627169291583,groupA
4.2627169291583,groupA
4.2627169291583,groupB
0.3943345483231142,groupA
0.3943345483231142,groupB
0.3943345483231142,groupB
0.3943345483231142,groupA
0.3943345483231142,groupA
0.9566799590553865,groupA
0.9566799590553865,groupB
4.097847971780702,groupA
1.6657849910916922,groupA
1.4827299490053925,groupA
1.4827299490053925,groupA
4.224233602513609,groupA
3.9626828325534147,groupA
1.2555677539773413,groupA
1.2555677539773413,groupA
6.09341152723831,groupA
6.09341152723831,groupA
9.626274068560521,groupB
9.09882959890507,groupA
9.09882959890507,groupB
9.09882959890507,groupB
9.09882959890507,groupA
9.09882959890507,groupB
9.09882959890507,groupB
2.1952423262958645,groupA
8.571673758823042,groupB
8.571673758823042,groupB
8.571673758823042,groupB
7.757541450857216,groupB
7.857219331595675,groupB
7.857219331595675,groupB
7.857219331595675,groupB
7.857219331595675,groupA
7.857219331595675,groupA
7.857219331595675,groupA
7.797857496939144,groupB
7.797857496939144,groupB
7.797857496939144,groupA
7.797857496939144,groupA
7.797857496939144,groupB
7.797857496939144,groupB
7.797857496939144,groupA
7.797857496939144,groupA
3.318658383470173,groupA
3.318658383470173,groupA
9.530342361838368,groupB
9.530342361838368,groupB
9.530342361838368,groupB
5.973914725843321,groupA
5.973914725843321,groupB
5.973914725843321,groupA
8.19777312715807,groupB
9.770415903661858,groupB
9.770415903661858,groupA
9.770415903661858,groupA
9.770415903661858,groupA
9.770415903661858,groupA
9.770415903661858,groupB
9.770415903661858,groupB
9.770415903661858,groupA
9.770415903661858,groupB
9.770415903661858,groupB
9.945187800188576,groupB
9.945187800188576,groupB
3.161179038250329,groupA
6.45767563699946,groupA
6.45767563699946,groupA
6.45767563699946,groupA
6.45767563699946,groupB
6.45767563699946,groupB
6.45767563699946,groupB
6.45767563699946,groupA
6.45767563699946,groupA
6.45767563699946,groupA
6.45767563699946,groupA
6.45767563699946,groupA
9.283971207377617,groupB
8.645563880009224,groupA
5.382319548374483,groupB
5.382319548374483,groupB
5.382319548374483,groupA
5.382319548374483,groupB
5.382319548374483,groupA
6.997925498043621,groupB
6.997925498043621,groupA
6.997925498043621,groupA
6.0918274053775825,groupB
6.0918274053775825,groupA
6.0918274053775825,groupB
6.0918274053775825,groupA
6.0918274053775825,groupA
5.296058137742932,groupB
5.296058137742932,groupA
5.296058137742932,groupA
2.135453300597263,groupA
2.135453300597263,groupB
2.135453300597263,groupA
2.135453300597263,groupB
2.135453300597263,groupB
2.135453300597263,groupA
2.135453300597263,groupB
2.135453300597263,groupB
3.4628733092289323,groupB
4.561301248039912,groupA
4.561301248039912,groupA
4.561301248039912,groupA
4.561301248039912,groupA
5.37559230709478,groupB
4.222656651424252,groupA
4.222656651424252,groupB
8.33871048701831,groupB
8.33871048701831,groupB
8.33871048701831,groupB
8.33871048701831,groupA
8.33871048701831,groupB
8.33871048701831,groupA
8.33871048701831,groupB
8.33871048701831,groupA
8.33871048701831,groupB
8.33871048701831,groupB
8.33871048701831,groupB
5.711520617595029,groupB
5.711520617595029,groupB
5.711520617595029,groupB
5.711520617595029,groupA
5.711520617595029,groupA
5.711520617595029,groupA
5.711520617595029,groupB
5.711520617595029,groupB
5.711520617595029,groupA
5.711520617595029,groupB
5.711520617595029,groupA
5.711520617595029,groupA
5.711520617595029,groupB
5.711520617595029,groupA
5.711520617595029,groupA
5.711520617595029,groupB
5.711520617595029,groupA
5.711520617595029,groupB
5.711520617595029,groupB
5.711520617595029,groupB
5.711520617595029,groupA
5.711520617595029,groupB
1.6436951199033067,groupA
1.6436951199033067,groupA
1.6436951199033067,groupB
1.6436951199033067,groupB
1.6436951199033067,groupA
1.6436951199033067,groupB
1.6436951199033067,groupA
1.6436951199033067,groupA
1.6436951199033067,groupA
1.6436951199033067,groupB
8.731766203394718,groupB
9.991032672197655,groupB
9.991032672197655,groupB
9.991032672197655,groupA
9.991032672197655,groupB
9.991032672197655,groupB
9.991032672197655,groupB
9.991032672197655,groupA
0.7070356319793247,groupA
0.7070356319793247,groupB
0.7070356319793247,groupA
0.7070356319793247,groupB
0.7070356319793247,groupB
2.858576889817095,groupA
4.513457541571842,groupA
4.513457541571842,groupB
4.513457541571842,groupB
4.513457541571842,groupA
4.513457541571842,groupA
4.513457541571842,groupA
4.513457541571842,groupB
4.513457541571842,groupB
4.513457541571842,groupB
4.513457541571842,groupA
4.513457541571842,groupA
4.513457541571842,groupA
4.513457541571842,groupB
4.513457541571842,groupA
4.513457541571842,groupB
4.513457541571842,groupB
4.513457541571842,groupB
4.513457541571842,groupA
4.513457541571842,groupB
4.513457541571842,groupA
4.513457541571842,groupB
4.513457541571842,groupB
4.513457541571842,groupB
4.513457541571842,groupA
4.513457541571842,groupA
4.513457541571842,groupA
4.513457541571842,groupA
4.513457541571842,groupB
2.8229905076608555,groupB
2.8229905076608555,groupA
2.8229905076608555,groupA
7.9897495268611,groupA
7.9897495268611,groupB
7.9897495268611,groupB
7.9897495268611,groupB
7.9897495268611,groupA
7.9897495268611,groupB
7.9897495268611,groupA
7.9897495268611,groupB
7.9897495268611,groupB
7.9897495268611,groupB
7.9897495268611,groupB
7.9897495268611,groupB
7.9897495268611,groupA
7.9897495268611,groupB
7.9897495268611,groupB
7.9897495268611,groupB
7.9897495268611,groupB
7.9897495268611,groupB
7.9897495268611,groupB
7.9897495268611,groupA
7.9897495268611,groupB
7.9897495268611,groupA
7.9897495268611,groupB
7.9897495268611,groupA
7.9897495268611,groupA
7.9897495268611,groupB
7.9897495268611,groupB
7.9897495268611,groupA
7.9897495268611,groupB
7.9897495268611,groupB
7.9897495268611,groupB
2.4360424806631875,groupB
2.4360424806631875,groupA
2.4360424806631875,groupA
2.4360424806631875,groupB
2.4360424806631875,groupA
2.4360424806631875,groupB
2.4360424806631875,groupB
2.4360424806631875,groupA
2.4360424806631875,groupA
2.4360424806631875,groupB
2.4360424806631875,groupA
2.4360424806631875,groupB
2.4360424806631875,groupB
2.4360424806631875,groupB
2.4360424806631875,groupB
2.4360424806631875,groupB
2.4360424806631875,groupB
2.4360424806631875,groupB
2.4360424806631875,groupB
1.46999439080859,groupB
1.46999439080859,groupA
1.3358060280428963,groupB
1.3358060280428963,groupA
1.3358060280428963,groupA
1.3358060280428963,groupA
1.3358060280428963,groupB
1.3358060280428963,groupA
1.3358060280428963,groupA
1.3358060280428963,groupA
1.3358060280428963,groupA
1.3358060280428963,groupB
1.3358060280428963,groupB
1.3358060280428963,groupA
1.3358060280428963,groupB
1.3358060280428963,groupA
1.3358060280428963,groupB
1.3358060280428963,groupB
3.1759795485194617,groupA
3.1759795485194617,groupB
3.1759795485194617,groupB
3.1759795485194617,groupB
3.1759795485194617,groupA
3.1759795485194617,groupB
3.1759795485194617,groupB
3.1759795485194617,groupA
9.866492623732695,groupB
9.866492623732695,groupA
9.126771153884066,groupB
9.126771153884066,groupB
9.126771153884066,groupB
9.126771153884066,groupA
9.126771153884066,groupB
9.126771153884066,groupA
9.126771153884066,groupB
9.126771153884066,groupB
9.126771153884066,groupA
9.126771153884066,groupB
9.71545803017854,groupA
9.71545803017854,groupA
9.71545803017854,groupA
9.71545803017854,groupA
9.71545803017854,groupB
9.71545803017854,groupA
9.71545803017854,groupB
7.89733016176835,groupA
7.89733016176835,groupA
7.89733016176835,groupB
7.89733016176835,groupA
7.89733016176835,groupB
7.89733016176835,groupB
7.89733016176835,groupA
7.89733016176835,groupA
7.89733016176835,groupA
7.89733016176835,groupB
7.89733016176835,groupA
7.89733016176835,groupB
7.89733016176835,groupA
7.89733016176835,groupA
7.89733016176835,groupA
7.89733016176835,groupA
7.89733016176835,groupB
7.89733016176835,groupB
7.89733016176835,groupB
7.89733016176835,groupA
7.89733016176835,groupB
7.89733016176835,groupB
7.89733016176835,groupB
7.89733016176835,groupB
7.89733016176835,groupB
7.89733016176835,groupA
7.89733016176835,groupA
7.89733016176835,groupA
7.89733016176835,groupA
7.89733016176835,groupB
7.89733016176835,groupB
7.89733016176835,groupB
7.89733016176835,groupB
7.89733016176835,groupA
7.89733016176835,groupB
7.89733016176835,groupA
7.89733016176835,groupA
7.89733016176835,groupB
7.89733016176835,groupB
7.89733016176835,groupA
7.89733016176835,groupA
7.89733016176835,groupB
7.89733016176835,groupA
7.89733016176835,groupA
7.89733016176835,groupB
7.89733016176835,groupB
7.89733016176835,groupB
7.89733016176835,groupA
7.89733016176835,groupB
7.89733016176835,groupB
7.89733016176835,groupA
7.89733016176835,groupB
7.89733016176835,groupB
7.89733016176835,groupA
7.89733016176835,groupA
7.89733016176835,groupB
7.89733016176835,groupA
7.89733016176835,groupA
7.89733016176835,groupA
9.67567811176922,groupB
9.67567811176922,groupA
9.67567811176922,groupB
9.67567811176922,groupB
9.67567811176922,groupB
9.67567811176922,groupA
9.67567811176922,groupB
9.67567811176922,groupA
9.67567811176922,groupA
9.67567811176922,groupB
9.67567811176922,groupB
9.67567811176922,groupB
9.67567811176922,groupA
9.67567811176922,groupB
9.67567811176922,groupB
9.67567811176922,groupB
9.67567811176922,groupB
9.67567811176922,groupB
9.67567811176922,groupA
9.67567811176922,groupB
9.67567811176922,groupB
9.67567811176922,groupB
9.67567811176922,groupB
9.67567811176922,groupA
9.67567811176922,groupA
9.67567811176922,groupA
9.67567811176922,groupB
9.67567811176922,groupA
9.67567811176922,groupA
9.67567811176922,groupA
9.67567811176922,groupA
9.67567811176922,groupB
9.67567811176922,groupB
9.67567811176922,groupB
9.67567811176922,groupA
9.67567811176922,groupA
9.67567811176922,groupA
9.67567811176922,groupB
9.67567811176922,groupA
9.67567811176922,groupB
9.67567811176922,groupB
9.67567811176922,groupB
5.844800069081306,groupA
5.844800069081306,groupB
5.844800069081306,groupA
5.844800069081306,groupA
0.729100723074736,groupA
0.729100723074736,groupB
0.729100723074736,groupB
0.729100723074736,groupB
0.729100723074736,groupB
0.729100723074736,groupB
0.729100723074736,groupA
0.729100723074736,groupA
0.729100723074736,groupA
0.729100723074736,groupB
0.729100723074736,groupB
0.729100723074736,groupA
0.729100723074736,groupB
0.729100723074736,groupA
0.729100723074736,groupA
0.729100723074736,groupB
0.729100723074736,groupA
0.729100723074736,groupB
0.729100723074736,groupA
0.729100723074736,groupA
0.729100723074736,groupA
0.729100723074736,groupA
0.729100723074736,groupB
0.729100723074736,groupB
0.729100723074736,groupA
0.729100723074736,groupB
0.729100723074736,groupB
0.729100723074736,groupB
0.729100723074736,groupA
0.729100723074736,groupB
0.6859616104460986,groupA
0.6859616104460986,groupB
0.6859616104460986,groupA
0.6859616104460986,groupB
0.6859616104460986,groupB
0.6859616104460986,groupA
0.6859616104460986,groupB
0.6859616104460986,groupA
0.6859616104460986,groupA
0.6859616104460986,groupA
0.6859616104460986,groupA
0.43952516647200346,groupB
0.43952516647200346,groupA
0.43952516647200346,groupA
0.43952516647200346,groupA
0.43952516647200346,groupB
0.43952516647200346,groupB
0.43952516647200346,groupB
0.43952516647200346,groupB
0.43952516647200346,groupA
0.43952516647200346,groupA
0.43952516647200346,groupB
0.43952516647200346,groupB
0.43952516647200346,groupA
0.43952516647200346,groupA
0.43952516647200346,groupA
0.43952516647200346,groupA
0.43952516647200346,groupA
0.43952516647200346,groupB
0.43952516647200346,groupA
0.43952516647200346,groupA
0.43952516647200346,groupA
0.43952516647200346,groupA
0.43952516647200346,groupA
0.43952516647200346,groupB
0.43952516647200346,groupA
0.43952516647200346,groupB
0.43952516647200346,groupB
0.43952516647200346,groupA
0.43952516647200346,groupA
0.43952516647200346,groupB
0.43952516647200346,groupB
0.43952516647200346,groupA
0.43952516647200346,groupA
0.43952516647200346,groupA
0.43952516647200346,groupB
0.43952516647200346,groupA
0.43952516647200346,groupA
0.43952516647200346,groupB
0.43952516647200346,groupB
0.43952516647200346,groupB
0.43952516647200346,groupA
0.43952516647200346,groupA
0.43952516647200346,groupB
0.43952516647200346,groupA
0.43952516647200346,groupB
0.43952516647200346,groupA
0.43952516647200346,groupB
0.43952516647200346,groupB
0.43952516647200346,groupA
0.43952516647200346,groupB
0.43952516647200346,groupB
0.43952516647200346,groupA
0.43952516647200346,groupA
0.43952516647200346,groupB
0.43952516647200346,groupA
0.43952516647200346,groupB
0.43952516647200346,groupB
0.43952516647200346,groupB
0.43952516647200346,groupA
0.43952516647200346,groupB
0.43952516647200346,groupA
0.43952516647200346,groupB
0.43952516647200346,groupB
0.43952516647200346,groupA
0.43952516647200346,groupA
0.43952516647200346,groupB
0.43952516647200346,groupB
0.43952516647200346,groupB
0.43952516647200346,groupA
0.43952516647200346,groupA
0.43952516647200346,groupA
0.43952516647200346,groupA
0.43952516647200346,groupA
0.43952516647200346,groupB
0.43952516647200346,groupA
0.43952516647200346,groupB
0.43952516647200346,groupB
0.43952516647200346,groupB
0.43952516647200346,groupB
0.43952516647200346,groupA
0.43952516647200346,groupB
0.43952516647200346,groupA
0.43952516647200346,groupB
0.43952516647200346,groupA
0.43952516647200346,groupA
0.43952516647200346,groupA
0.43952516647200346,groupA
0.43952516647200346,groupB
0.43952516647200346,groupA
0.43952516647200346,groupA
0.43952516647200346,groupB
0.43952516647200346,groupA
0.43952516647200346,groupB
0.43952516647200346,groupA
0.43952516647200346,groupA
0.43952516647200346,groupA
0.43952516647200346,groupB
0.43952516647200346,groupA
0.43952516647200346,groupB
0.43952516647200346,groupB
0.43952516647200346,groupB
0.43952516647200346,groupA
0.43952516647200346,groupB
0.43952516647200346,groupB
0.43952516647200346,groupA
0.43952516647200346,groupA
0.43952516647200346,groupA
0.43952516647200346,groupA
0.43952516647200346,groupA
0.43952516647200346,groupB
0.43952516647200346,groupA
0.43952516647200346,groupB
0.43952516647200346,groupB
0.43952516647200346,groupB
0.43952516647200346,groupA
0.43952516647200346,groupB
0.43952516647200346,groupB
0.43952516647200346,groupA
0.43952516647200346,groupB
0.43952516647200346,groupB
0.43952516647200346,groupB
0.43952516647200346,groupB
0.43952516647200346,groupB
0.43952516647200346,groupA
0.43952516647200346,groupA
0.43952516647200346,groupB
0.43952516647200346,groupB
0.43952516647200346,groupB
0.43952516647200346,groupA
0.43952516647200346,groupB
0.43952516647200346,groupB
0.43952516647200346,groupA
0.43952516647200346,groupB
0.43952516647200346,groupB
0.43952516647200346,groupB
0.43952516647200346,groupB
0.43952516647200346,groupB
0.43952516647200346,groupB
0.43952516647200346,groupB
0.43952516647200346,groupA
0.43952516647200346,groupB
0.43952516647200346,groupA
0.43952516647200346,groupB
0.43952516647200346,groupB
0.43952516647200346,groupB
0.43952516647200346,groupB
0.43952516647200346,groupB
0.43952516647200346,groupB
0.43952516647200346,groupA
0.43952516647200346,groupB
0.43952516647200346,groupA
0.43952516647200346,groupA
0.43952516647200346,groupA
0.43952516647200346,groupB
0.43952516647200346,groupA
0.43952516647200346,groupB
0.43952516647200346,groupA
0.43952516647200346,groupB
0.43952516647200346,groupB
0.43952516647200346,groupB
0.43952516647200346,groupA
0.43952516647200346,groupB
0.43952516647200346,groupA
0.43952516647200346,groupA
0.43952516647200346,groupA
0.43952516647200346,groupB
0.43952516647200346,groupB
0.43952516647200346,groupB
0.43952516647200346,groupB
0.43952516647200346,groupA
0.43952516647200346,groupA
0.43952516647200346,groupA
0.43952516647200346,groupA
0.43952516647200346,groupB
0.43952516647200346,groupA
0.43952516647200346,groupA
0.43952516647200346,groupA
0.43952516647200346,groupA
0.43952516647200346,groupA
0.43952516647200346,groupA
0.43952516647200346,groupB
0.43952516647200346,groupA
0.43952516647200346,groupB
0.43952516647200346,groupA
0.43952516647200346,groupB
0.43952516647200346,groupA
0.43952516647200346,groupB
0.43952516647200346,groupB
0.43952516647200346,groupB
0.43952516647200346,groupA
0.43952516647200346,groupB
0.43952516647200346,groupB
0.43952516647200346,groupA
0.43952516647200346,groupB
0.43952516647200346,groupA
0.43952516647200346,groupA
0.43952516647200346,groupA
0.43952516647200346,groupA
0.43952516647200346,groupB
0.43952516647200346,groupB
0.43952516647200346,groupB
0.43952516647200346,groupB
0.43952516647200346,groupB
0.43952516647200346,groupB
0.43952516647200346,groupB
0.43952516647200346,groupA
0.43952516647200346,groupA
0.43952516647200346,groupA
0.43952516647200346,groupA
0.43952516647200346,groupB
0.43952516647200346,groupB
0.43952516647200346,groupB
0.43952516647200346,groupA
0.43952516647200346,groupB
0.43952516647200346,groupB
0.43952516647200346,groupB
0.43952516647200346,groupA
0.43952516647200346,groupB
0.43952516647200346,groupB
0.43952516647200346,groupA
0.43952516647200346,groupB
0.43952516647200346,groupA
0.43952516647200346,groupB
0.43952516647200346,groupB
0.43952516647200346,groupA
0.43952516647200346,groupA
0.43952516647200346,groupB
0.43952516647200346,groupA
0.43952516647200346,groupB
0.43952516647200346,groupA
0.43952516647200346,groupB
0.43952516647200346,groupB
0.43952516647200346,groupB
0.43952516647200346,groupA
0.43952516647200346,groupB
0.43952516647200346,groupA
0.43952516647200346,groupA
0.43952516647200346,groupB
0.43952516647200346,groupA
0.43952516647200346,groupA
0.43952516647200346,groupB
0.43952516647200346,groupB
0.43952516647200346,groupA
0.43952516647200346,groupB
0.43952516647200346,groupB
0.43952516647200346,groupB
0.43952516647200346,groupB
0.43952516647200346,groupB
0.43952516647200346,groupB
0.43952516647200346,groupB
0.43952516647200346,groupB
0.43952516647200346,groupA
0.43952516647200346,groupB
0.43952516647200346,groupA
0.43952516647200346,groupB
0.43952516647200346,groupB
0.43952516647200346,groupB
0.43952516647200346,groupB
0.43952516647200346,groupB
0.43952516647200346,groupA
0.43952516647200346,groupA
0.43952516647200346,groupA
0.43952516647200346,groupA
0.43952516647200346,groupB
0.43952516647200346,groupB
0.43952516647200346,groupA
0.43952516647200346,groupB
0.43952516647200346,groupB
0.43952516647200346,groupB
0.43952516647200346,groupA
0.43952516647200346,groupB
0.43952516647200346,groupA
0.43952516647200346,groupA
0.43952516647200346,groupB
0.43952516647200346,groupB
0.43952516647200346,groupB
0.43952516647200346,groupA
0.43952516647200346,groupA
0.43952516647200346,groupB
0.43952516647200346,groupB
0.43952516647200346,groupA
0.43952516647200346,groupB
0.43952516647200346,groupA
0.43952516647200346,groupA
0.43952516647200346,groupA
0.43952516647200346,groupA
0.43952516647200346,groupB
0.43952516647200346,groupA
0.43952516647200346,groupB
0.43952516647200346,groupA
0.43952516647200346,groupB
0.43952516647200346,groupB
0.43952516647200346,groupB
0.43952516647200346,groupA
0.43952516647200346,groupA
0.43952516647200346,groupB
0.43952516647200346,groupB
0.43952516647200346,groupA
0.43952516647200346,groupA
0.43952516647200346,groupB
0.43952516647200346,groupB
0.43952516647200346,groupA
0.43952516647200346,groupA
0.43952516647200346,groupB
0.43952516647200346,groupB
0.43952516647200346,groupA
0.43952516647200346,groupB
0.43952516647200346,groupA
0.43952516647200346,groupB
0.43952516647200346,groupB
0.43952516647200346,groupB
0.43952516647200346,groupA
0.43952516647200346,groupA
0.43952516647200346,groupA
0.43952516647200346,groupA
0.43952516647200346,groupA
0.43952516647200346,groupA
0.43952516647200346,groupB
0.43952516647200346,groupA
0.43952516647200346,groupA
0.43952516647200346,groupB
0.43952516647200346,groupA
0.43952516647200346,groupB
0.43952516647200346,groupA
0.43952516647200346,groupA
0.43952516647200346,groupA
0.43952516647200346,groupB
0.43952516647200346,groupB
0.43952516647200346,groupA
0.43952516647200346,groupA
0.43952516647200346,groupB
0.43952516647200346,groupA
0.43952516647200346,groupB
0.43952516647200346,groupB
0.43952516647200346,groupA
0.43952516647200346,groupB
0.43952516647200346,groupA
0.43952516647200346,groupA
0.43952516647200346,groupB
0.43952516647200346,groupA
0.43952516647200346,groupA
0.43952516647200346,groupB
0.43952516647200346,groupB
0.43952516647200346,groupA
0.43952516647200346,groupA
0.43952516647200346,groupB
0.43952516647200346,groupA
0.43952516647200346,groupA
0.43952516647200346,groupA
0.43952516647200346,groupB
0.43952516647200346,groupB
0.43952516647200346,groupA
0.43952516647200346,groupB
0.43952516647200346,groupA
0.43952516647200346,groupB
0.43952516647200346,groupB
0.43952516647200346,groupA
0.43952516647200346,groupB
0.43952516647200346,groupA
0.43952516647200346,groupA
0.43952516647200346,groupB
0.43952516647200346,groupB
0.43952516647200346,groupB
0.43952516647200346,groupB
0.43952516647200346,groupA
0.43952516647200346,groupA
0.43952516647200346,groupA
0.43952516647200346,groupA
0.43952516647200346,groupB
0.43952516647200346,groupA
0.43952516647200346,groupA
0.43952516647200346,groupA
0.43952516647200346,groupB
0.43952516647200346,groupB
0.43952516647200346,groupA
0.43952516647200346,groupB
0.43952516647200346,groupA
0.43952516647200346,groupB
0.43952516647200346,groupA
0.43952516647200346,groupB
0.43952516647200346,groupA
0.43952516647200346,groupB
0.43952516647200346,groupA
0.43952516647200346,groupB
0.43952516647200346,groupB
0.43952516647200346,groupA
0.43952516647200346,groupB
0.43952516647200346,groupB
0.43952516647200346,groupB
0.43952516647200346,groupA
0.43952516647200346,groupA
0.43952516647200346,groupA
0.43952516647200346,groupB
0.43952516647200346,groupB
0.43952516647200346,groupA
0.43952516647200346,groupA
0.43952516647200346,groupB
0.43952516647200346,groupB
0.43952516647200346,groupB
0.43952516647200346,groupB
0.43952516647200346,groupB
0.43952516647200346,groupA
0.43952516647200346,groupB
0.43952516647200346,groupA
0.43952516647200346,groupA
0.43952516647200346,groupB
0.43952516647200346,groupB
0.43952516647200346,groupA
0.43952516647200346,groupB
0.43952516647200346,groupB
0.43952516647200346,groupB
0.43952516647200346,groupB
0.43952516647200346,groupA
0.43952516647200346,groupB
0.43952516647200346,groupA
0.43952516647200346,groupA
0.43952516647200346,groupB
0.43952516647200346,groupB
0.43952516647200346,groupB
0.43952516647200346,groupA
0.43952516647200346,groupB
0.43952516647200346,groupA
0.43952516647200346,groupA
0.43952516647200346,groupB
0.43952516647200346,groupA
0.43952516647200346,groupB
0.43952516647200346,groupB
0.43952516647200346,groupB
0.43952516647200346,groupA
0.43952516647200346,groupB
0.43952516647200346,groupA
0.43952516647200346,groupA
0.43952516647200346,groupB
0.43952516647200346,groupB
0.43952516647200346,groupB
0.43952516647200346,groupA
0.43952516647200346,groupB
0.43952516647200346,groupA
0.43952516647200346,groupA
0.43952516647200346,groupB
0.43952516647200346,groupB
0.43952516647200346,groupB
0.43952516647200346,groupA
0.43952516647200346,groupA
0.43952516647200346,groupB
0.43952516647200346,groupA
0.43952516647200346,groupB
0.43952516647200346,groupB
0.43952516647200346,groupB
0.43952516647200346,groupA
0.43952516647200346,groupA
0.43952516647200346,groupB
0.43952516647200346,groupB
0.43952516647200346,groupA
0.43952516647200346,groupB
0.43952516647200346,groupB
0.43952516647200346,groupA
0.43952516647200346,groupB
0.43952516647200346,groupB
0.43952516647200346,groupA
0.43952516647200346,groupB
0.43952516647200346,groupA
0.43952516647200346,groupA
0.43952516647200346,groupA
0.43952516647200346,groupA
0.43952516647200346,groupA
0.43952516647200346,groupB
0.43952516647200346,groupA
0.43952516647200346,groupA
0.43952516647200346,groupA
0.43952516647200346,groupA
0.43952516647200346,groupA
0.43952516647200346,groupA
0.43952516647200346,groupA
0.43952516647200346,groupB
0.43952516647200346,groupB
0.43952516647200346,groupA
0.43952516647200346,groupB
0.43952516647200346,groupB
0.43952516647200346,groupB
0.43952516647200346,groupB
0.43952516647200346,groupA
0.43952516647200346,groupA
0.43952516647200346,groupB
0.43952516647200346,groupB
0.43952516647200346,groupB
0.43952516647200346,groupA
0.43952516647200346,groupB
0.43952516647200346,groupA
0.43952516647200346,groupA
0.43952516647200346,groupA
0.43952516647200346,groupB
0.43952516647200346,groupA
0.43952516647200346,groupA
0.43952516647200346,groupA
0.43952516647200346,groupB
0.43952516647200346,groupA
0.43952516647200346,groupA
0.43952516647200346,groupB
0.43952516647200346,groupB
0.43952516647200346,groupA
0.43952516647200346,groupB
0.43952516647200346,groupB
0.43952516647200346,groupB
0.43952516647200346,groupB
0.43952516647200346,groupA
0.43952516647200346,groupA
0.43952516647200346,groupA
0.43952516647200346,groupA
0.43952516647200346,groupA
0.43952516647200346,groupA
0.43952516647200346,groupA
0.43952516647200346,groupB
0.43952516647200346,groupB
0.43952516647200346,groupA
0.43952516647200346,groupA
0.43952516647200346,groupB
0.43952516647200346,groupA
0.43952516647200346,groupB
0.43952516647200346,groupB
0.43952516647200346,groupB
0.43952516647200346,groupB
0.43952516647200346,groupA
0.43952516647200346,groupA
0.43952516647200346,groupB
0.43952516647200346,groupB
0.43952516647200346,groupB
0.43952516647200346,groupA
0.43952516647200346,groupB
0.43952516647200346,groupB
0.43952516647200346,groupB
0.43952516647200346,groupA
0.43952516647200346,groupB
0.43952516647200346,groupA
0.43952516647200346,groupB
0.43952516647200346,groupA
0.43952516647200346,groupA
0.43952516647200346,groupB
0.43952516647200346,groupA
0.43952516647200346,groupA
0.43952516647200346,groupA
0.43952516647200346,groupA
0.43952516647200346,groupB
0.43952516647200346,groupA
0.43952516647200346,groupA
0.43952516647200346,groupB
0.43952516647200346,groupA
0.43952516647200346,groupB
0.43952516647200346,groupB
0.43952516647200346,groupA
0.43952516647200346,groupA
0.43952516647200346,groupB
0.43952516647200346,groupA
0.43952516647200346,groupA
0.43952516647200346,groupB
0.43952516647200346,groupB
0.43952516647200346,groupB
0.43952516647200346,groupB
0.43952516647200346,groupB
0.43952516647200346,groupA
0.43952516647200346,groupB
0.43952516647200346,groupA
0.43952516647200346,groupA
0.43952516647200346,groupB
0.43952516647200346,groupA
0.43952516647200346,groupB
0.43952516647200346,groupB
0.43952516647200346,groupB
0.43952516647200346,groupA
0.43952516647200346,groupB
0.43952516647200346,groupA
0.43952516647200346,groupA
0.43952516647200346,groupB
0.43952516647200346,groupA
0.43952516647200346,groupB
0.43952516647200346,groupB
0.43952516647200346,groupB
0.43952516647200346,groupA
0.43952516647200346,groupA
0.43952516647200346,groupB
0.43952516647200346,groupB
0.43952516647200346,groupA
0.43952516647200346,groupB
0.43952516647200346,groupA
0.43952516647200346,groupA
0.43952516647200346,groupB
0.43952516647200346,groupB
0.43952516647200346,groupB
0.43952516647200346,groupB
0.43952516647200346,groupA
0.43952516647200346,groupA
0.43952516647200346,groupB
0.43952516647200346,groupB
0.43952516647200346,groupB
0.43952516647200346,groupB
0.43952516647200346,groupA
0.43952516647200346,groupB
0.43952516647200346,groupB
0.43952516647200346,groupA
0.43952516647200346,groupB
0.43952516647200346,groupA
0.43952516647200346,groupB
0.43952516647200346,groupB
0.43952516647200346,groupB
0.43952516647200346,groupB
0.43952516647200346,groupB
0.43952516647200346,groupB
0.43952516647200346,groupA
0.43952516647200346,groupB
0.43952516647200346,groupB
0.43952516647200346,groupB
0.43952516647200346,groupA
0.43952516647200346,groupB
0.43952516647200346,groupA
0.43952516647200346,groupA
0.43952516647200346,groupB
0.43952516647200346,groupB
0.43952516647200346,groupB
0.43952516647200346,groupB
0.43952516647200346,groupA
0.43952516647200346,groupB
0.43952516647200346,groupB
0.43952516647200346,groupB
0.43952516647200346,groupA
0.43952516647200346,groupB
0.43952516647200346,groupA
0.43952516647200346,groupB
0.43952516647200346,groupB
0.43952516647200346,groupA
0.43952516647200346,groupA
0.43952516647200346,groupA
0.43952516647200346,groupA
0.43952516647200346,groupB
0.43952516647200346,groupB
0.43952516647200346,groupB
0.43952516647200346,groupB
0.43952516647200346,groupB
0.43952516647200346,groupA
0.43952516647200346,groupB
0.43952516647200346,groupB
0.43952516647200346,groupA
0.43952516647200346,groupA
0.43952516647200346,groupB
0.43952516647200346,groupB
0.43952516647200346,groupA
0.43952516647200346,groupB
0.43952516647200346,groupA
0.43952516647200346,groupA
0.43952516647200346,groupA
0.43952516647200346,groupB
0.43952516647200346,groupA
0.43952516647200346,groupA
0.43952516647200346,groupA
0.43952516647200346,groupA
0.43952516647200346,groupA
0.43952516647200346,groupB
0.43952516647200346,groupA
0.43952516647200346,groupA
0.43952516647200346,groupA
0.43952516647200346,groupB
0.43952516647200346,groupB
0.43952516647200346,groupA
0.43952516647200346,groupA
0.43952516647200346,groupA
0.43952516647200346,groupA
0.43952516647200346,groupB
0.43952516647200346,groupA
0.43952516647200346,groupA
0.43952516647200346,groupB
0.43952516647200346,groupB
0.43952516647200346,groupB
0.43952516647200346,groupA
0.43952516647200346,groupA
0.43952516647200346,groupA
0.43952516647200346,groupB
0.43952516647200346,groupB
0.43952516647200346,groupA
0.43952516647200346,groupB
0.43952516647200346,groupB
0.43952516647200346,groupB
0.43952516647200346,groupA
0.43952516647200346,groupA
0.43952516647200346,groupB
0.43952516647200346,groupB
0.43952516647200346,groupA
0.43952516647200346,groupA
0.43952516647200346,groupA
0.43952516647200346,groupA
0.43952516647200346,groupA
0.43952516647200346,groupA
0.43952516647200346,groupB
0.43952516647200346,groupB
0.43952516647200346,groupA
0.43952516647200346,groupB
0.43952516647200346,groupB
0.43952516647200346,groupA
0.43952516647200346,groupA
0.43952516647200346,groupB
0.43952516647200346,groupA
0.43952516647200346,groupB
0.43952516647200346,groupA
0.43952516647200346,groupB
0.43952516647200346,groupA
0.43952516647200346,groupA
0.43952516647200346,groupB
0.43952516647200346,groupA
0.43952516647200346,groupA
0.43952516647200346,groupA
0.43952516647200346,groupA
0.43952516647200346,groupB
0.43952516647200346,groupA
0.43952516647200346,groupB
0.43952516647200346,groupA
0.43952516647200346,groupB
0.43952516647200346,groupB
0.43952516647200346,groupA
0.43952516647200346,groupA
0.43952516647200346,groupB
0.43952516647200346,groupA
0.43952516647200346,groupB
0.43952516647200346,groupB
0.43952516647200346,groupA
0.43952516647200346,groupB
0.43952516647200346,groupB
0.43952516647200346,groupA
0.43952516647200346,groupB
0.43952516647200346,groupB
0.43952516647200346,groupB
0.43952516647200346,groupB
0.43952516647200346,groupB
0.43952516647200346,groupB
0.43952516647200346,groupA
0.43952516647200346,groupA
0.43952516647200346,groupB
0.43952516647200346,groupB
0.43952516647200346,groupB
0.43952516647200346,groupA
0.43952516647200346,groupB
0.43952516647200346,groupA
0.43952516647200346,groupA
0.43952516647200346,groupB
0.43952516647200346,groupB
0.43952516647200346,groupB
0.43952516647200346,groupA
0.43952516647200346,groupA
0.43952516647200346,groupB
0.43952516647200346,groupA
0.43952516647200346,groupA
0.43952516647200346,groupA
0.43952516647200346,groupB
0.43952516647200346,groupA
0.43952516647200346,groupA
0.43952516647200346,groupB
0.43952516647200346,groupA
0.43952516647200346,groupB
0.43952516647200346,groupA
0.43952516647200346,groupB
0.43952516647200346,groupB
0.43952516647200346,groupA
0.43952516647200346,groupA
0.43952516647200346,groupB
0.43952516647200346,groupA
0.43952516647200346,groupB
0.43952516647200346,groupB
0.43952516647200346,groupB
0.43952516647200346,groupA
0.43952516647200346,groupB
0.43952516647200346,groupA
0.43952516647200346,groupB
0.43952516647200346,groupA
0.43952516647200346,groupB
0.43952516647200346,groupB
0.43952516647200346,groupB
0.43952516647200346,groupA
0.43952516647200346,groupA
0.43952516647200346,groupB
0.43952516647200346,groupA
0.43952516647200346,groupB
0.43952516647200346,groupB
0.43952516647200346,groupB
0.43952516647200346,groupB
0.43952516647200346,groupA
0.43952516647200346,groupA
0.43952516647200346,groupB
0.43952516647200346,groupA
0.43952516647200346,groupA
0.43952516647200346,groupB
0.43952516647200346,groupB
0.43952516647200346,groupA
0.43952516647200346,groupA
0.43952516647200346,groupB
0.43952516647200346,groupB
0.43952516647200346,groupB
0.43952516647200346,groupA
0.43952516647200346,groupA
0.43952516647200346,groupA
0.43952516647200346,groupA
0.43952516647200346,groupA
0.43952516647200346,groupA
0.43952516647200346,groupB
0.43952516647200346,groupB
0.43952516647200346,groupA
0.43952516647200346,groupB
0.43952516647200346,groupB
0.43952516647200346,groupA
0.43952516647200346,groupA
0.43952516647200346,groupB
0.43952516647200346,groupA
0.43952516647200346,groupB
0.43952516647200346,groupB
0.43952516647200346,groupA
0.43952516647200346,groupA
0.43952516647200346,groupA
0.43952516647200346,groupA
0.43952516647200346,groupB
0.43952516647200346,groupB
0.43952516647200346,groupB
0.43952516647200346,groupB
0.43952516647200346,groupA
0.43952516647200346,groupB
0.43952516647200346,groupA
0.43952516647200346,groupB
0.43952516647200346,groupB
0.43952516647200346,groupA
0.43952516647200346,groupA
0.43952516647200346,groupA
0.43952516647200346,groupB
0.43952516647200346,groupA
0.43952516647200346,groupB
0.43952516647200346,groupB
0.43952516647200346,groupA
0.43952516647200346,groupB
0.43952516647200346,groupA
0.43952516647200346,groupB
0.43952516647200346,groupA
0.43952516647200346,groupB
0.43952516647200346,groupB
0.43952516647200346,groupB
0.43952516647200346,groupB
0.43952516647200346,groupB
0.43952516647200346,groupA
0.43952516647200346,groupB
0.43952516647200346,groupB
0.43952516647200346,groupA
0.43952516647200346,groupB
0.43952516647200346,groupB
0.43952516647200346,groupB
0.43952516647200346,groupA
0.43952516647200346,groupA
0.43952516647200346,groupA
0.43952516647200346,groupA
0.43952516647200346,groupA
0.43952516647200346,groupB
0.43952516647200346,groupB
0.43952516647200346,groupA
0.43952516647200346,groupA
0.43952516647200346,groupA
0.43952516647200346,groupB
0.43952516647200346,groupB
0.43952516647200346,groupB
0.43952516647200346,groupA
0.43952516647200346,groupB
0.43952516647200346,groupB
0.43952516647200346,groupA
0.43952516647200346,groupB
0.43952516647200346,groupB
0.43952516647200346,groupB
0.43952516647200346,groupB
0.43952516647200346,groupA
0.43952516647200346,groupB
0.43952516647200346,groupA
0.43952516647200346,groupB
0.43952516647200346,groupA
0.43952516647200346,groupA
0.43952516647200346,groupA
0.43952516647200346,groupA
0.43952516647200346,groupA
0.43952516647200346,groupB
0.43952516647200346,groupB
0.43952516647200346,groupB
0.43952516647200346,groupA
0.43952516647200346,groupA
0.43952516647200346,groupB
0.43952516647200346,groupA
0.43952516647200346,groupB
0.43952516647200346,groupB
0.43952516647200346,groupA
0.43952516647200346,groupA
0.43952516647200346,groupB
0.43952516647200346,groupB
0.43952516647200346,groupB
0.43952516647200346,groupA
0.43952516647200346,groupB
0.43952516647200346,groupB
0.43952516647200346,groupA
0.43952516647200346,groupA
0.43952516647200346,groupB
0.43952516647200346,groupB
0.43952516647200346,groupA
0.43952516647200346,groupA
0.43952516647200346,groupB
0.43952516647200346,groupB
0.43952516647200346,groupA
0.43952516647200346,groupA
0.43952516647200346,groupA
0.43952516647200346,groupB
0.43952516647200346,groupB
0.43952516647200346,groupB
0.43952516647200346,groupA
0.43952516647200346,groupB
0.43952516647200346,groupB
0.43952516647200346,groupB
0.43952516647200346,groupA
0.43952516647200346,groupB
0.43952516647200346,groupA
0.43952516647200346,groupA
0.43952516647200346,groupA
0.43952516647200346,groupB
0.43952516647200346,groupA
0.43952516647200346,groupB
0.43952516647200346,groupA
0.43952516647200346,groupB
0.43952516647200346,groupB
0.43952516647200346,groupA
0.43952516647200346,groupA
0.43952516647200346,groupA
0.43952516647200346,groupB
0.43952516647200346,groupB
0.43952516647200346,groupB
0.43952516647200346,groupB
0.43952516647200346,groupA
0.43952516647200346,groupB
0.43952516647200346,groupA
0.43952516647200346,groupB
0.43952516647200346,groupA
0.43952516647200346,groupB
0.43952516647200346,groupB
0.43952516647200346,groupA
0.43952516647200346,groupB
0.43952516647200346,groupB
0.43952516647200346,groupA
0.43952516647200346,groupB
0.43952516647200346,groupA
0.43952516647200346,groupA
0.43952516647200346,groupA
0.43952516647200346,groupA
0.43952516647200346,groupA
0.43952516647200346,groupB
0.43952516647200346,groupB
0.43952516647200346,groupA
0.43952516647200346,groupB
0.43952516647200346,groupB
0.43952516647200346,groupB
0.43952516647200346,groupB
0.43952516647200346,groupA
0.43952516647200346,groupB
0.43952516647200346,groupB
0.43952516647200346,groupB
0.43952516647200346,groupB
0.43952516647200346,groupA
0.43952516647200346,groupA
0.43952516647200346,groupB
0.43952516647200346,groupB
0.43952516647200346,groupB
0.43952516647200346,groupA
0.43952516647200346,groupA
0.43952516647200346,groupB
0.43952516647200346,groupA
0.43952516647200346,groupA
0.43952516647200346,groupA
0.43952516647200346,groupB
0.43952516647200346,groupA
0.43952516647200346,groupB
0.43952516647200346,groupA
0.43952516647200346,groupA
0.43952516647200346,groupA
0.43952516647200346,groupB
0.43952516647200346,groupB
0.43952516647200346,groupA
0.43952516647200346,groupA
0.43952516647200346,groupA
0.43952516647200346,groupB
0.43952516647200346,groupA
0.43952516647200346,groupA
0.43952516647200346,groupB
0.43952516647200346,groupA
0.43952516647200346,groupB
0.43952516647200346,groupA
0.43952516647200346,groupA
0.43952516647200346,groupA
0.43952516647200346,groupA
0.43952516647200346,groupB
0.43952516647200346,groupB
0.43952516647200346,groupA
0.43952516647200346,groupB
0.43952516647200346,groupA
0.43952516647200346,groupA
0.43952516647200346,groupB
0.43952516647200346,groupB
0.43952516647200346,groupA
0.43952516647200346,groupA
0.43952516647200346,groupA
0.43952516647200346,groupA
0.43952516647200346,groupA
0.43952516647200346,groupB
0.43952516647200346,groupA
0.43952516647200346,groupB
0.43952516647200346,groupB
0.43952516647200346,groupB
0.43952516647200346,groupA
0.43952516647200346,groupA
0.43952516647200346,groupB
0.43952516647200346,groupB
0.43952516647200346,groupB
0.43952516647200346,groupA
0.43952516647200346,groupB
0.43952516647200346,groupB
0.43952516647200346,groupA
0.43952516647200346,groupA
0.43952516647200346,groupA
0.43952516647200346,groupB
0.43952516647200346,groupB
0.43952516647200346,groupA
0.43952516647200346,groupB
0.43952516647200346,groupA
0.43952516647200346,groupA
0.43952516647200346,groupB
0.43952516647200346,groupA
0.43952516647200346,groupB
0.43952516647200346,groupB
0.43952516647200346,groupA
0.43952516647200346,groupB
0.43952516647200346,groupB
0.43952516647200346,groupB
0.43952516647200346,groupB
0.43952516647200346,groupA
0.43952516647200346,groupB
0.43952516647200346,groupB
0.43952516647200346,groupA
0.43952516647200346,groupA
0.43952516647200346,groupB
0.43952516647200346,groupB
0.43952516647200346,groupB
0.43952516647200346,groupB
0.43952516647200346,groupB
0.43952516647200346,groupB
0.43952516647200346,groupA
0.43952516647200346,groupA
0.43952516647200346,groupA
0.43952516647200346,groupA
0.43952516647200346,groupA
0.43952516647200346,groupA
0.43952516647200346,groupA
0.43952516647200346,groupB
0.43952516647200346,groupB
0.43952516647200346,groupA
0.43952516647200346,groupA
0.43952516647200346,groupA
0.43952516647200346,groupA
0.43952516647200346,groupA
0.43952516647200346,groupB
0.43952516647200346,groupB
0.43952516647200346,groupA
0.43952516647200346,groupA
0.43952516647200346,groupA
0.43952516647200346,groupA
0.43952516647200346,groupB
0.43952516647200346,groupB
0.43952516647200346,groupB
0.43952516647200346,groupA
0.43952516647200346,groupA
0.43952516647200346,groupA
0.43952516647200346,groupA
0.43952516647200346,groupB
0.43952516647200346,groupB
0.43952516647200346,groupB
0.43952516647200346,groupB
0.43952516647200346,groupA
0.43952516647200346,groupB
0.43952516647200346,groupA
0.43952516647200346,groupB
0.43952516647200346,groupA
0.43952516647200346,groupB
0.43952516647200346,groupB
0.43952516647200346,groupB
0.43952516647200346,groupA
0.43952516647200346,groupB
0.43952516647200346,groupA
0.43952516647200346,groupB
0.43952516647200346,groupB
0.43952516647200346,groupA
0.43952516647200346,groupB
0.43952516647200346,groupB
0.43952516647200346,groupB
0.43952516647200346,groupB
0.43952516647200346,groupB
0.43952516647200346,groupB
0.43952516647200346,groupA
0.43952516647200346,groupA
0.43952516647200346,groupB
0.43952516647200346,groupB
0.43952516647200346,groupA
0.43952516647200346,groupB
0.43952516647200346,groupA
0.43952516647200346,groupB
0.43952516647200346,groupB
0.43952516647200346,groupA
0.43952516647200346,groupB
0.43952516647200346,groupA
0.43952516647200346,groupB
0.43952516647200346,groupA
0.43952516647200346,groupB
0.43952516647200346,groupA
0.43952516647200346,groupB
0.43952516647200346,groupA
0.43952516647200346,groupA
0.43952516647200346,groupA
0.43952516647200346,groupB
0.43952516647200346,groupA
0.43952516647200346,groupA
0.43952516647200346,groupB
0.43952516647200346,groupB
0.43952516647200346,groupB
0.43952516647200346,groupA
0.43952516647200346,groupA
0.43952516647200346,groupA
0.43952516647200346,groupA
0.43952516647200346,groupB
0.43952516647200346,groupB
0.43952516647200346,groupA
0.43952516647200346,groupB
0.43952516647200346,groupA
0.43952516647200346,groupB
0.43952516647200346,groupA
0.43952516647200346,groupB
0.43952516647200346,groupA
0.43952516647200346,groupA
0.43952516647200346,groupB
0.43952516647200346,groupB
0.43952516647200346,groupA
0.43952516647200346,groupA
0.43952516647200346,groupA
0.43952516647200346,groupB
0.43952516647200346,groupB
0.43952516647200346,groupB
0.43952516647200346,groupA
0.43952516647200346,groupB
0.43952516647200346,groupA
0.43952516647200346,groupA
0.43952516647200346,groupB
0.43952516647200346,groupB
0.43952516647200346,groupA
0.43952516647200346,groupB
0.43952516647200346,groupB
0.43952516647200346,groupA
0.43952516647200346,groupA
0.43952516647200346,groupB
0.43952516647200346,groupB
0.43952516647200346,groupA
0.43952516647200346,groupB
0.43952516647200346,groupB
0.43952516647200346,groupB
0.43952516647200346,groupA
0.43952516647200346,groupB
0.43952516647200346,groupB
0.43952516647200346,groupB
0.43952516647200346,groupA
0.43952516647200346,groupB
0.43952516647200346,groupB
0.43952516647200346,groupB
0.43952516647200346,groupB
0.43952516647200346,groupA
0.43952516647200346,groupA
0.43952516647200346,groupB
0.43952516647200346,groupB
0.43952516647200346,groupB
0.43952516647200346,groupB
0.43952516647200346,groupB
0.43952516647200346,groupB
0.43952516647200346,groupB
0.43952516647200346,groupA
0.43952516647200346,groupB
0.43952516647200346,groupB
0.43952516647200346,groupA
0.43952516647200346,groupB
0.43952516647200346,groupB
0.43952516647200346,groupB
0.43952516647200346,groupA
0.43952516647200346,groupB
0.43952516647200346,groupA
0.43952516647200346,groupB
0.43952516647200346,groupB
0.43952516647200346,groupA
0.43952516647200346,groupA
0.43952516647200346,groupA
0.43952516647200346,groupA
0.43952516647200346,groupB
0.43952516647200346,groupA
0.43952516647200346,groupB
0.43952516647200346,groupA
0.43952516647200346,groupA
0.43952516647200346,groupA
0.43952516647200346,groupA
0.43952516647200346,groupB
0.43952516647200346,groupB
0.43952516647200346,groupB
0.43952516647200346,groupB
0.43952516647200346,groupA
0.43952516647200346,groupB
0.43952516647200346,groupA
0.43952516647200346,groupB
0.43952516647200346,groupB
0.43952516647200346,groupB
0.43952516647200346,groupB
0.43952516647200346,groupA
0.43952516647200346,groupB
0.43952516647200346,groupA
0.43952516647200346,groupB
0.43952516647200346,groupB
0.43952516647200346,groupA
0.43952516647200346,groupA
0.43952516647200346,groupB
0.43952516647200346,groupB
0.43952516647200346,groupB
0.43952516647200346,groupB
0.43952516647200346,groupB
0.43952516647200346,groupA
0.43952516647200346,groupA
0.43952516647200346,groupA
0.43952516647200346,groupA
0.43952516647200346,groupB
0.43952516647200346,groupB
0.43952516647200346,groupB
0.43952516647200346,groupA
0.43952516647200346,groupA
0.43952516647200346,groupB
0.43952516647200346,groupA
0.43952516647200346,groupB
0.43952516647200346,groupB
0.43952516647200346,groupA
0.43952516647200346,groupB
0.43952516647200346,groupA
0.43952516647200346,groupA
0.43952516647200346,groupB
0.43952516647200346,groupB
0.43952516647200346,groupB
0.43952516647200346,groupB
0.43952516647200346,groupA
0.43952516647200346,groupB
0.43952516647200346,groupA
0.43952516647200346,groupA
0.43952516647200346,groupA
0.43952516647200346,groupA
0.43952516647200346,groupA
0.43952516647200346,groupB
0.43952516647200346,groupA
0.43952516647200346,groupA
0.43952516647200346,groupB
0.43952516647200346,groupB
0.43952516647200346,groupB
0.43952516647200346,groupB
0.43952516647200346,groupB
0.43952516647200346,groupB
0.43952516647200346,groupA
0.43952516647200346,groupA
0.43952516647200346,groupB
0.43952516647200346,groupB
0.43952516647200346,groupA
0.43952516647200346,groupA
0.43952516647200346,groupB
0.43952516647200346,groupA
0.43952516647200346,groupA
0.43952516647200346,groupB
0.43952516647200346,groupA
0.43952516647200346,groupB
0.43952516647200346,groupB
0.43952516647200346,groupA
0.43952516647200346,groupB
0.43952516647200346,groupB
0.43952516647200346,groupB
0.43952516647200346,groupA
0.43952516647200346,groupA
0.43952516647200346,groupB
0.43952516647200346,groupA
0.43952516647200346,groupB
0.43952516647200346,groupB
0.43952516647200346,groupB
0.43952516647200346,groupA
0.43952516647200346,groupA
0.43952516647200346,groupA
0.43952516647200346,groupB
0.43952516647200346,groupB
0.43952516647200346,groupA
0.43952516647200346,groupA
0.43952516647200346,groupA
0.43952516647200346,groupB
0.43952516647200346,groupA
0.43952516647200346,groupB
0.43952516647200346,groupB
0.43952516647200346,groupB
0.43952516647200346,groupB
0.43952516647200346,groupA
0.43952516647200346,groupB
0.43952516647200346,groupB
0.43952516647200346,groupA
0.43952516647200346,groupB
0.43952516647200346,groupB
0.43952516647200346,groupB
0.43952516647200346,groupA
0.43952516647200346,groupB
0.43952516647200346,groupB
0.43952516647200346,groupB
0.43952516647200346,groupA
0.43952516647200346,groupB
0.43952516647200346,groupB
0.43952516647200346,groupB
0.43952516647200346,groupB
0.43952516647200346,groupB
0.43952516647200346,groupB
0.43952516647200346,groupB
0.43952516647200346,groupB
0.43952516647200346,groupB
0.43952516647200346,groupA
0.43952516647200346,groupB
0.43952516647200346,groupA
0.43952516647200346,groupB
0.43952516647200346,groupB
0.43952516647200346,groupB
0.43952516647200346,groupB
0.43952516647200346,groupB
0.43952516647200346,groupB
0.43952516647200346,groupA
0.43952516647200346,groupB
0.43952516647200346,groupB
0.43952516647200346,groupB
0.43952516647200346,groupA
0.43952516647200346,groupB
0.43952516647200346,groupB
0.43952516647200346,groupB
0.43952516647200346,groupA
0.43952516647200346,groupB
0.43952516647200346,groupA
0.43952516647200346,groupB
0.43952516647200346,groupA
0.43952516647200346,groupB
0.43952516647200346,groupA
0.43952516647200346,groupB
0.43952516647200346,groupA
0.43952516647200346,groupA
0.43952516647200346,groupA
0.43952516647200346,groupB
0.43952516647200346,groupB
0.43952516647200346,groupB
0.43952516647200346,groupA
0.43952516647200346,groupA
0.43952516647200346,groupB
0.43952516647200346,groupA
0.43952516647200346,groupB
0.43952516647200346,groupB
0.43952516647200346,groupA
0.43952516647200346,groupB
0.43952516647200346,groupB
0.43952516647200346,groupB
0.43952516647200346,groupB
0.43952516647200346,groupA
0.43952516647200346,groupA
0.43952516647200346,groupB
0.43952516647200346,groupA
0.43952516647200346,groupA
0.43952516647200346,groupB
0.43952516647200346,groupA
0.43952516647200346,groupB
0.43952516647200346,groupB
0.43952516647200346,groupB
0.43952516647200346,groupA
0.43952516647200346,groupB
0.43952516647200346,groupB
0.43952516647200346,groupB
0.43952516647200346,groupB
0.43952516647200346,groupA
0.43952516647200346,groupA
0.43952516647200346,groupA
0.43952516647200346,groupB
0.43952516647200346,groupB
0.43952516647200346,groupB
0.43952516647200346,groupB
0.43952516647200346,groupB
0.43952516647200346,groupA
0.43952516647200346,groupB
0.43952516647200346,groupB
0.43952516647200346,groupA
0.43952516647200346,groupA
0.43952516647200346,groupB
0.43952516647200346,groupB
0.43952516647200346,groupB
0.43952516647200346,groupA
0.43952516647200346,groupA
0.43952516647200346,groupA
0.43952516647200346,groupB
0.43952516647200346,groupB
0.43952516647200346,groupA
0.43952516647200346,groupA
0.43952516647200346,groupA
0.43952516647200346,groupB
0.43952516647200346,groupA
0.43952516647200346,groupB
0.43952516647200346,groupA
0.43952516647200346,groupB
0.43952516647200346,groupA
0.43952516647200346,groupB
0.43952516647200346,groupB
0.43952516647200346,groupA
0.43952516647200346,groupA
0.43952516647200346,groupB
0.43952516647200346,groupB
0.43952516647200346,groupA
0.43952516647200346,groupA
0.43952516647200346,groupB
0.43952516647200346,groupB
0.43952516647200346,groupA
0.43952516647200346,groupA
0.43952516647200346,groupA
0.43952516647200346,groupB
0.43952516647200346,groupA
0.43952516647200346,groupA
0.43952516647200346,groupA
0.43952516647200346,groupA
0.43952516647200346,groupB
0.43952516647200346,groupB
0.43952516647200346,groupB
0.43952516647200346,groupA
0.43952516647200346,groupB
0.43952516647200346,groupA
0.43952516647200346,groupB
0.43952516647200346,groupA
0.43952516647200346,groupA
0.43952516647200346,groupA
0.43952516647200346,groupB
0.43952516647200346,groupA
0.43952516647200346,groupB
0.43952516647200346,groupA
0.43952516647200346,groupB
0.43952516647200346,groupB
0.43952516647200346,groupA
0.43952516647200346,groupB
0.43952516647200346,groupA
0.43952516647200346,groupA
0.43952516647200346,groupA
0.43952516647200346,groupB
0.43952516647200346,groupB
0.43952516647200346,groupA
0.43952516647200346,groupA
0.43952516647200346,groupA
0.43952516647200346,groupA
0.43952516647200346,groupB
0.43952516647200346,groupA
0.43952516647200346,groupB
0.43952516647200346,groupA
0.43952516647200346,groupA
0.43952516647200346,groupB
0.43952516647200346,groupB
0.43952516647200346,groupA
0.43952516647200346,groupA
0.43952516647200346,groupB
0.43952516647200346,groupA
0.43952516647200346,groupA
0.43952516647200346,groupA
0.43952516647200346,groupB
0.43952516647200346,groupA
0.43952516647200346,groupB
0.43952516647200346,groupA
0.43952516647200346,groupB
0.43952516647200346,groupB
0.43952516647200346,groupB
0.43952516647200346,groupB
0.43952516647200346,groupB
0.43952516647200346,groupB
0.43952516647200346,groupB
0.43952516647200346,groupA
0.43952516647200346,groupB
0.43952516647200346,groupA
0.43952516647200346,groupA
0.43952516647200346,groupB
0.43952516647200346,groupA
0.43952516647200346,groupA
0.43952516647200346,groupA
0.43952516647200346,groupA
0.43952516647200346,groupB
0.43952516647200346,groupA
0.43952516647200346,groupB
0.43952516647200346,groupA
0.43952516647200346,groupA
0.43952516647200346,groupB
0.43952516647200346,groupB
0.43952516647200346,groupB
0.43952516647200346,groupA
0.43952516647200346,groupA
0.43952516647200346,groupA
0.43952516647200346,groupB
0.43952516647200346,groupB
0.43952516647200346,groupA
0.43952516647200346,groupA
0.43952516647200346,groupA
0.43952516647200346,groupB
0.43952516647200346,groupB
0.43952516647200346,groupA
0.43952516647200346,groupA
0.43952516647200346,groupB
0.43952516647200346,groupB
0.43952516647200346,groupA
0.43952516647200346,groupA
0.43952516647200346,groupA
0.43952516647200346,groupB
0.43952516647200346,groupA
0.43952516647200346,groupA
0.43952516647200346,groupA
0.43952516647200346,groupB
0.43952516647200346,groupA
0.43952516647200346,groupB
0.43952516647200346,groupB
0.43952516647200346,groupA
0.43952516647200346,groupB
0.43952516647200346,groupA
0.43952516647200346,groupA
0.43952516647200346,groupA
0.43952516647200346,groupB
0.43952516647200346,groupB
0.43952516647200346,groupB
0.43952516647200346,groupA
0.43952516647200346,groupB
0.43952516647200346,groupB
0.43952516647200346,groupB
0.43952516647200346,groupA
0.43952516647200346,groupA
0.43952516647200346,groupB
0.43952516647200346,groupB
0.43952516647200346,groupB
0.43952516647200346,groupB
0.43952516647200346,groupB
0.43952516647200346,groupB
0.43952516647200346,groupB
0.43952516647200346,groupA
0.43952516647200346,groupB
0.43952516647200346,groupB
0.43952516647200346,groupB
0.43952516647200346,groupB
0.43952516647200346,groupA
0.43952516647200346,groupB
0.43952516647200346,groupA
0.43952516647200346,groupA
0.43952516647200346,groupB
0.43952516647200346,groupA
0.43952516647200346,groupB
0.43952516647200346,groupA
0.43952516647200346,groupB
0.43952516647200346,groupB
0.43952516647200346,groupB
0.43952516647200346,groupB
0.43952516647200346,groupA
0.43952516647200346,groupB
0.43952516647200346,groupA
0.43952516647200346,groupB
0.43952516647200346,groupB
0.43952516647200346,groupB
0.43952516647200346,groupA
0.43952516647200346,groupA
0.43952516647200346,groupB
0.43952516647200346,groupB
0.43952516647200346,groupB
0.43952516647200346,groupB
0.43952516647200346,groupB
0.43952516647200346,groupB
0.43952516647200346,groupA
0.43952516647200346,groupA
0.43952516647200346,groupB
0.43952516647200346,groupA
0.43952516647200346,groupA
0.43952516647200346,groupB
0.43952516647200346,groupB
0.43952516647200346,groupA
0.43952516647200346,groupA
0.43952516647200346,groupB
0.43952516647200346,groupB
0.43952516647200346,groupB
0.43952516647200346,groupA
0.43952516647200346,groupA
0.43952516647200346,groupA
0.43952516647200346,groupA
0.43952516647200346,groupB
0.43952516647200346,groupB
0.43952516647200346,groupA
0.43952516647200346,groupA
0.43952516647200346,groupB
0.43952516647200346,groupB
0.43952516647200346,groupA
0.43952516647200346,groupA
0.43952516647200346,groupB
0.43952516647200346,groupB
0.43952516647200346,groupA
0.43952516647200346,groupA
0.43952516647200346,groupA
0.43952516647200346,groupB
0.43952516647200346,groupA
0.43952516647200346,groupB
0.43952516647200346,groupB
0.43952516647200346,groupB
0.43952516647200346,groupA
0.43952516647200346,groupB
0.43952516647200346,groupB
0.43952516647200346,groupB
0.43952516647200346,groupB
0.43952516647200346,groupA
0.43952516647200346,groupA
0.43952516647200346,groupA
0.43952516647200346,groupB
0.43952516647200346,groupB
0.43952516647200346,groupB
0.43952516647200346,groupA
0.43952516647200346,groupB
0.43952516647200346,groupB
0.43952516647200346,groupA
0.43952516647200346,groupB
0.43952516647200346,groupB
0.43952516647200346,groupB
0.43952516647200346,groupA
0.43952516647200346,groupA
0.43952516647200346,groupB
0.43952516647200346,groupB
0.43952516647200346,groupA
0.43952516647200346,groupA
0.43952516647200346,groupB
0.43952516647200346,groupA
0.43952516647200346,groupB
0.43952516647200346,groupA
0.43952516647200346,groupA
0.43952516647200346,groupB
0.43952516647200346,groupB
0.43952516647200346,groupB
0.43952516647200346,groupB
0.43952516647200346,groupB
0.43952516647200346,groupB
0.43952516647200346,groupB
0.43952516647200346,groupB
0.43952516647200346,groupB
0.43952516647200346,groupB
0.43952516647200346,groupB
0.43952516647200346,groupB
0.43952516647200346,groupA
0.43952516647200346,groupB
0.43952516647200346,groupB
0.43952516647200346,groupA
0.43952516647200346,groupA
0.43952516647200346,groupA
0.43952516647200346,groupA
0.43952516647200346,groupB
0.43952516647200346,groupB
0.43952516647200346,groupB
0.43952516647200346,groupB
0.43952516647200346,groupA
0.43952516647200346,groupB
0.43952516647200346,groupA
0.43952516647200346,groupA
0.43952516647200346,groupB
0.43952516647200346,groupA
0.43952516647200346,groupB
0.43952516647200346,groupA
0.43952516647200346,groupB
0.43952516647200346,groupB
0.43952516647200346,groupA
0.43952516647200346,groupB
0.43952516647200346,groupA
0.43952516647200346,groupA
0.43952516647200346,groupB
0.43952516647200346,groupB
0.43952516647200346,groupB
0.43952516647200346,groupA
0.43952516647200346,groupB
0.43952516647200346,groupA
0.43952516647200346,groupB
0.43952516647200346,groupA
0.43952516647200346,groupB
0.43952516647200346,groupA
0.43952516647200346,groupA
0.43952516647200346,groupA
0.43952516647200346,groupB
0.43952516647200346,groupA
0.43952516647200346,groupA
0.43952516647200346,groupB
0.43952516647200346,groupA
0.43952516647200346,groupB
0.43952516647200346,groupA
0.43952516647200346,groupB
0.43952516647200346,groupB
0.43952516647200346,groupB
0.43952516647200346,groupB
0.43952516647200346,groupB
0.43952516647200346,groupA
0.43952516647200346,groupA
0.43952516647200346,groupB
0.43952516647200346,groupB
0.43952516647200346,groupA
0.43952516647200346,groupA
0.43952516647200346,groupA
0.43952516647200346,groupA
0.43952516647200346,groupA
0.43952516647200346,groupA
0.43952516647200346,groupB
0.43952516647200346,groupB
0.43952516647200346,groupB
0.43952516647200346,groupA
0.43952516647200346,groupB
0.43952516647200346,groupB
0.43952516647200346,groupA
0.43952516647200346,groupB
0.43952516647200346,groupA
0.43952516647200346,groupB
0.43952516647200346,groupB
0.43952516647200346,groupA
0.43952516647200346,groupA
0.43952516647200346,groupB
0.43952516647200346,groupA
0.43952516647200346,groupA
0.43952516647200346,groupA
0.43952516647200346,groupA
0.43952516647200346,groupB
0.43952516647200346,groupA
0.43952516647200346,groupB
0.43952516647200346,groupA
0.43952516647200346,groupB
0.43952516647200346,groupA
0.43952516647200346,groupB
0.43952516647200346,groupB
0.43952516647200346,groupB
0.43952516647200346,groupB
0.43952516647200346,groupB
0.43952516647200346,groupB
0.43952516647200346,groupA
0.43952516647200346,groupB
0.43952516647200346,groupB
0.43952516647200346,groupB
0.43952516647200346,groupA
0.43952516647200346,groupB
0.43952516647200346,groupA
0.43952516647200346,groupB
0.43952516647200346,groupA
0.43952516647200346,groupB
0.43952516647200346,groupB
0.43952516647200346,groupB
0.43952516647200346,groupA
0.43952516647200346,groupB
0.43952516647200346,groupB
0.43952516647200346,groupB
0.43952516647200346,groupA
0.43952516647200346,groupB
0.43952516647200346,groupB
0.43952516647200346,groupB
0.43952516647200346,groupA
0.43952516647200346,groupB
0.43952516647200346,groupA
0.43952516647200346,groupB
0.43952516647200346,groupA
0.43952516647200346,groupB
0.43952516647200346,groupB
0.43952516647200346,groupB
0.43952516647200346,groupB
0.43952516647200346,groupB
0.43952516647200346,groupB
0.43952516647200346,groupA
0.43952516647200346,groupA
0.43952516647200346,groupA
0.43952516647200346,groupB
0.43952516647200346,groupB
0.43952516647200346,groupA
0.43952516647200346,groupB
0.43952516647200346,groupA
0.43952516647200346,groupA
0.43952516647200346,groupB
0.43952516647200346,groupB
0.43952516647200346,groupB
0.43952516647200346,groupB
0.43952516647200346,groupA
0.43952516647200346,groupA
0.43952516647200346,groupB
0.43952516647200346,groupA
0.43952516647200346,groupA
0.43952516647200346,groupB
0.43952516647200346,groupB
0.43952516647200346,groupB
0.43952516647200346,groupB
0.43952516647200346,groupB
0.43952516647200346,groupA
0.43952516647200346,groupB
0.43952516647200346,groupB
0.43952516647200346,groupB
0.43952516647200346,groupB
0.43952516647200346,groupA
0.43952516647200346,groupB
0.43952516647200346,groupB
0.43952516647200346,groupB
0.43952516647200346,groupA
0.43952516647200346,groupA
0.43952516647200346,groupA
0.43952516647200346,groupA
0.43952516647200346,groupB
0.43952516647200346,groupA
0.43952516647200346,groupA
0.43952516647200346,groupB
0.43952516647200346,groupB
0.43952516647200346,groupA
0.43952516647200346,groupA
0.43952516647200346,groupB
0.43952516647200346,groupB
0.43952516647200346,groupA
0.43952516647200346,groupB
0.43952516647200346,groupB
0.43952516647200346,groupB
0.43952516647200346,groupB
0.43952516647200346,groupB
0.43952516647200346,groupA
0.43952516647200346,groupB
0.43952516647200346,groupB
0.43952516647200346,groupA
0.43952516647200346,groupA
0.43952516647200346,groupB
0.43952516647200346,groupA
0.43952516647200346,groupA
0.43952516647200346,groupA
0.43952516647200346,groupB
0.43952516647200346,groupB
0.43952516647200346,groupB
0.43952516647200346,groupA
0.43952516647200346,groupA
0.43952516647200346,groupA
0.43952516647200346,groupA
0.43952516647200346,groupB
0.43952516647200346,groupA
0.43952516647200346,groupB
0.43952516647200346,groupA
0.43952516647200346,groupA
0.43952516647200346,groupB
0.43952516647200346,groupB
0.43952516647200346,groupA
0.43952516647200346,groupA
0.43952516647200346,groupB
0.43952516647200346,groupB
0.43952516647200346,groupA
0.43952516647200346,groupB
0.43952516647200346,groupA
0.43952516647200346,groupA
0.43952516647200346,groupB
0.43952516647200346,groupB
0.43952516647200346,groupA
0.43952516647200346,groupB
0.43952516647200346,groupB
0.43952516647200346,groupA
0.43952516647200346,groupB
0.43952516647200346,groupB
0.43952516647200346,groupA
0.43952516647200346,groupA
0.43952516647200346,groupA
0.43952516647200346,groupB
0.43952516647200346,groupA
0.43952516647200346,groupA
0.43952516647200346,groupB
0.43952516647200346,groupB
0.43952516647200346,groupB
0.43952516647200346,groupB
0.43952516647200346,groupB
0.43952516647200346,groupA
0.43952516647200346,groupA
0.43952516647200346,groupA
0.43952516647200346,groupA
0.43952516647200346,groupA
0.43952516647200346,groupB
0.43952516647200346,groupB
0.43952516647200346,groupB
0.43952516647200346,groupA
0.43952516647200346,groupA
0.43952516647200346,groupB
0.43952516647200346,groupA
0.43952516647200346,groupB
0.43952516647200346,groupB
0.43952516647200346,groupA
0.43952516647200346,groupB
0.43952516647200346,groupA
0.43952516647200346,groupB
0.43952516647200346,groupA
0.43952516647200346,groupB
0.43952516647200346,groupB
0.43952516647200346,groupA
0.43952516647200346,groupA
0.43952516647200346,groupA
0.43952516647200346,groupB
0.43952516647200346,groupA
0.43952516647200346,groupA
0.43952516647200346,groupA
0.43952516647200346,groupA
0.43952516647200346,groupA
0.43952516647200346,groupA
0.43952516647200346,groupB
0.43952516647200346,groupA
0.43952516647200346,groupA
0.43952516647200346,groupA
0.43952516647200346,groupA
0.43952516647200346,groupA
0.43952516647200346,groupA
0.43952516647200346,groupA
0.43952516647200346,groupA
0.43952516647200346,groupA
0.43952516647200346,groupB
0.43952516647200346,groupB
0.43952516647200346,groupB
0.43952516647200346,groupA
0.43952516647200346,groupA
0.43952516647200346,groupA
0.43952516647200346,groupB
0.43952516647200346,groupB
0.43952516647200346,groupA
0.43952516647200346,groupB
0.43952516647200346,groupA
0.43952516647200346,groupA
0.43952516647200346,groupB
0.43952516647200346,groupA
0.43952516647200346,groupA
0.43952516647200346,groupA
0.43952516647200346,groupA
0.43952516647200346,groupB
0.43952516647200346,groupB
0.43952516647200346,groupB
0.43952516647200346,groupA
0.43952516647200346,groupA
0.43952516647200346,groupB
0.43952516647200346,groupA
0.43952516647200346,groupA
0.43952516647200346,groupB
0.43952516647200346,groupB
0.43952516647200346,groupA
0.43952516647200346,groupB
0.43952516647200346,groupB
0.43952516647200346,groupA
0.43952516647200346,groupB
0.43952516647200346,groupB
0.43952516647200346,groupB
0.43952516647200346,groupA
0.43952516647200346,groupB
0.43952516647200346,groupB
0.43952516647200346,groupB
0.43952516647200346,groupA
0.43952516647200346,groupB
0.43952516647200346,groupB
0.43952516647200346,groupB
0.43952516647200346,groupA
0.43952516647200346,groupA
0.43952516647200346,groupB
0.43952516647200346,groupB
0.43952516647200346,groupB
0.43952516647200346,groupB
0.43952516647200346,groupB
0.43952516647200346,groupB
0.43952516647200346,groupA
0.43952516647200346,groupA
0.43952516647200346,groupA
0.43952516647200346,groupA
0.43952516647200346,groupA
0.43952516647200346,groupA
0.43952516647200346,groupB
0.43952516647200346,groupA
0.43952516647200346,groupA
0.43952516647200346,groupA
0.43952516647200346,groupB
0.43952516647200346,groupB
0.43952516647200346,groupB
0.43952516647200346,groupA
0.43952516647200346,groupB
0.43952516647200346,groupA
0.43952516647200346,groupB
0.43952516647200346,groupB
0.43952516647200346,groupB
0.43952516647200346,groupB
0.43952516647200346,groupA
0.43952516647200346,groupA
0.43952516647200346,groupA
0.43952516647200346,groupB
0.43952516647200346,groupA
0.43952516647200346,groupB
0.43952516647200346,groupA
0.43952516647200346,groupA
0.43952516647200346,groupA
0.43952516647200346,groupA
0.43952516647200346,groupA
0.43952516647200346,groupA
0.43952516647200346,groupA
0.43952516647200346,groupB
0.43952516647200346,groupA
0.43952516647200346,groupA
0.43952516647200346,groupA
0.43952516647200346,groupA
0.43952516647200346,groupB
0.43952516647200346,groupB
0.43952516647200346,groupB
0.43952516647200346,groupB
0.43952516647200346,groupA
0.43952516647200346,groupB
0.43952516647200346,groupB
0.43952516647200346,groupB
0.43952516647200346,groupB
0.43952516647200346,groupB
0.43952516647200346,groupA
0.43952516647200346,groupB
0.43952516647200346,groupA
0.43952516647200346,groupA
0.43952516647200346,groupB
0.43952516647200346,groupB
0.43952516647200346,groupA
0.43952516647200346,groupA
0.43952516647200346,groupB
0.43952516647200346,groupA
0.43952516647200346,groupA
0.43952516647200346,groupB
0.43952516647200346,groupA
0.43952516647200346,groupA
0.43952516647200346,groupB
0.43952516647200346,groupA
0.43952516647200346,groupB
0.43952516647200346,groupA
0.43952516647200346,groupA
0.43952516647200346,groupB
0.43952516647200346,groupA
0.43952516647200346,groupB
0.43952516647200346,groupA
0.43952516647200346,groupA
0.43952516647200346,groupB
0.43952516647200346,groupB
0.43952516647200346,groupB
0.43952516647200346,groupB
0.43952516647200346,groupA
0.43952516647200346,groupB
0.43952516647200346,groupB
0.43952516647200346,groupA
0.43952516647200346,groupA
0.43952516647200346,groupB
0.43952516647200346,groupB
0.43952516647200346,groupA
0.43952516647200346,groupB
0.43952516647200346,groupB
0.43952516647200346,groupB
0.43952516647200346,groupB
0.43952516647200346,groupB
0.43952516647200346,groupB
0.43952516647200346,groupA
0.43952516647200346,groupB
0.43952516647200346,groupA
0.43952516647200346,groupA
0.43952516647200346,groupB
0.43952516647200346,groupA
0.43952516647200346,groupB
0.43952516647200346,groupB
0.43952516647200346,groupA
0.43952516647200346,groupB
0.43952516647200346,groupA
0.43952516647200346,groupB
0.43952516647200346,groupA
0.43952516647200346,groupA
0.43952516647200346,groupA
0.43952516647200346,groupB
0.43952516647200346,groupB
0.43952516647200346,groupB
0.43952516647200346,groupB
0.43952516647200346,groupB
0.43952516647200346,groupA
0.43952516647200346,groupB
0.43952516647200346,groupB
0.43952516647200346,groupB
0.43952516647200346,groupB
0.43952516647200346,groupA
0.43952516647200346,groupA
0.43952516647200346,groupA
0.43952516647200346,groupA
0.43952516647200346,groupB
0.43952516647200346,groupA
0.43952516647200346,groupB
0.43952516647200346,groupA
0.43952516647200346,groupB
0.43952516647200346,groupB
0.43952516647200346,groupB
0.43952516647200346,groupB
0.43952516647200346,groupB
0.43952516647200346,groupB
0.43952516647200346,groupA
0.43952516647200346,groupB
0.43952516647200346,groupB
0.43952516647200346,groupB
0.43952516647200346,groupB
0.43952516647200346,groupA
0.43952516647200346,groupA
0.43952516647200346,groupB
0.43952516647200346,groupA
0.43952516647200346,groupB
0.43952516647200346,groupB
0.43952516647200346,groupB
0.43952516647200346,groupA
0.43952516647200346,groupB
0.43952516647200346,groupA
0.43952516647200346,groupA
0.43952516647200346,groupA
0.43952516647200346,groupB
0.43952516647200346,groupB
0.43952516647200346,groupA
0.43952516647200346,groupA
0.43952516647200346,groupB
0.43952516647200346,groupA
0.43952516647200346,groupB
0.43952516647200346,groupB
0.43952516647200346,groupA
0.43952516647200346,groupB
0.43952516647200346,groupB
0.43952516647200346,groupB
0.43952516647200346,groupB
0.43952516647200346,groupA
0.43952516647200346,groupB
0.43952516647200346,groupB
0.43952516647200346,groupA
0.43952516647200346,groupB
0.43952516647200346,groupB
0.43952516647200346,groupA
0.43952516647200346,groupA
0.43952516647200346,groupB
0.43952516647200346,groupA
0.43952516647200346,groupA
0.43952516647200346,groupA
0.43952516647200346,groupB
0.43952516647200346,groupB
0.43952516647200346,groupA
0.43952516647200346,groupA
0.43952516647200346,groupB
0.43952516647200346,groupB
0.43952516647200346,groupA
0.43952516647200346,groupB
0.43952516647200346,groupB
0.43952516647200346,groupA
0.43952516647200346,groupB
0.43952516647200346,groupB
0.43952516647200346,groupB
0.43952516647200346,groupA
0.43952516647200346,groupB
0.43952516647200346,groupB
0.43952516647200346,groupB
0.43952516647200346,groupB
0.43952516647200346,groupB
0.43952516647200346,groupB
0.43952516647200346,groupB
0.43952516647200346,groupA
0.43952516647200346,groupB
0.43952516647200346,groupB
0.43952516647200346,groupA
0.43952516647200346,groupB
0.43952516647200346,groupA
0.43952516647200346,groupA
0.43952516647200346,groupA
0.43952516647200346,groupA
0.43952516647200346,groupB
0.43952516647200346,groupB
0.43952516647200346,groupB
0.43952516647200346,groupB
0.43952516647200346,groupB
0.43952516647200346,groupA
0.43952516647200346,groupA
0.43952516647200346,groupB
0.43952516647200346,groupA
0.43952516647200346,groupB
0.43952516647200346,groupB
0.43952516647200346,groupA
0.43952516647200346,groupA
0.43952516647200346,groupA
0.43952516647200346,groupA
0.43952516647200346,groupB
0.43952516647200346,groupB
0.43952516647200346,groupB
0.43952516647200346,groupA
0.43952516647200346,groupA
0.43952516647200346,groupA
0.43952516647200346,groupB
0.43952516647200346,groupB
0.43952516647200346,groupB
0.43952516647200346,groupB
0.43952516647200346,groupA
0.43952516647200346,groupB
0.43952516647200346,groupB
0.43952516647200346,groupA
0.43952516647200346,groupB
0.43952516647200346,groupA
0.43952516647200346,groupB
0.43952516647200346,groupA
0.43952516647200346,groupA
0.43952516647200346,groupB
0.43952516647200346,groupA
0.43952516647200346,groupB
0.43952516647200346,groupA
0.43952516647200346,groupA
0.43952516647200346,groupA
0.43952516647200346,groupA
0.43952516647200346,groupB
0.43952516647200346,groupA
0.43952516647200346,groupB
0.43952516647200346,groupB
0.43952516647200346,groupA
0.43952516647200346,groupA
0.43952516647200346,groupA
0.43952516647200346,groupA
0.43952516647200346,groupB
0.43952516647200346,groupA
0.43952516647200346,groupA
0.43952516647200346,groupB
0.43952516647200346,groupB
0.43952516647200346,groupB
0.43952516647200346,groupA
0.43952516647200346,groupB
0.43952516647200346,groupA
0.43952516647200346,groupA
0.43952516647200346,groupA
0.43952516647200346,groupB
0.43952516647200346,groupA
0.43952516647200346,groupB
0.43952516647200346,groupA
0.43952516647200346,groupA
0.43952516647200346,groupA
0.43952516647200346,groupA
0.43952516647200346,groupA
0.43952516647200346,groupB
0.43952516647200346,groupB
0.43952516647200346,groupB
0.43952516647200346,groupB
0.43952516647200346,groupB
0.43952516647200346,groupA
0.43952516647200346,groupB
0.43952516647200346,groupB
0.43952516647200346,groupA
0.43952516647200346,groupB
0.43952516647200346,groupA
0.43952516647200346,groupB
0.43952516647200346,groupB
0.43952516647200346,groupA
0.43952516647200346,groupB
0.43952516647200346,groupB
0.43952516647200346,groupB
0.43952516647200346,groupB
0.43952516647200346,groupB
0.43952516647200346,groupA
0.43952516647200346,groupB
0.43952516647200346,groupA
0.43952516647200346,groupB
0.43952516647200346,groupB
0.43952516647200346,groupB
0.43952516647200346,groupB
0.43952516647200346,groupB
0.43952516647200346,groupB
0.43952516647200346,groupB
0.43952516647200346,groupB
0.43952516647200346,groupA
0.43952516647200346,groupA
0.43952516647200346,groupA
0.43952516647200346,groupB
0.43952516647200346,groupA
0.43952516647200346,groupB
0.43952516647200346,groupA
0.43952516647200346,groupB
0.43952516647200346,groupA
0.43952516647200346,groupA
0.43952516647200346,groupA
0.43952516647200346,groupA
0.43952516647200346,groupB
0.43952516647200346,groupB
0.43952516647200346,groupA
0.43952516647200346,groupA
0.43952516647200346,groupB
0.43952516647200346,groupB
0.43952516647200346,groupB
0.43952516647200346,groupB
0.43952516647200346,groupB
0.43952516647200346,groupB
0.43952516647200346,groupB
0.43952516647200346,groupA
0.43952516647200346,groupA
0.43952516647200346,groupB
0.43952516647200346,groupB
0.43952516647200346,groupB
0.43952516647200346,groupB
0.43952516647200346,groupB
0.43952516647200346,groupB
0.43952516647200346,groupB
0.43952516647200346,groupA
0.43952516647200346,groupB
0.43952516647200346,groupA
0.43952516647200346,groupA
0.43952516647200346,groupA
0.43952516647200346,groupA
0.43952516647200346,groupB
0.43952516647200346,groupA
0.43952516647200346,groupB
0.43952516647200346,groupB
0.43952516647200346,groupA
0.43952516647200346,groupA
0.43952516647200346,groupB
0.43952516647200346,groupB
0.43952516647200346,groupA
0.43952516647200346,groupA
0.43952516647200346,groupB
0.43952516647200346,groupB
0.43952516647200346,groupA
0.43952516647200346,groupA
0.43952516647200346,groupA
0.43952516647200346,groupB
0.43952516647200346,groupB
0.43952516647200346,groupB
0.43952516647200346,groupA
0.43952516647200346,groupB
0.43952516647200346,groupA
0.43952516647200346,groupA
0.43952516647200346,groupB
0.43952516647200346,groupA
0.43952516647200346,groupB
0.43952516647200346,groupA
0.43952516647200346,groupB
0.43952516647200346,groupB
0.43952516647200346,groupB
0.43952516647200346,groupB
0.43952516647200346,groupB
0.43952516647200346,groupA
0.43952516647200346,groupB
0.43952516647200346,groupA
0.43952516647200346,groupA
0.43952516647200346,groupA
0.43952516647200346,groupA
0.43952516647200346,groupA
0.43952516647200346,groupB
0.43952516647200346,groupA
0.43952516647200346,groupB
0.43952516647200346,groupB
0.43952516647200346,groupA
0.43952516647200346,groupA
0.43952516647200346,groupA
0.43952516647200346,groupB
0.43952516647200346,groupA
0.43952516647200346,groupA
0.43952516647200346,groupB
0.43952516647200346,groupA
0.43952516647200346,groupB
0.43952516647200346,groupB
0.43952516647200346,groupB
0.43952516647200346,groupA
0.43952516647200346,groupB
0.43952516647200346,groupA
0.43952516647200346,groupA
0.43952516647200346,groupA
0.43952516647200346,groupB
0.43952516647200346,groupB
0.43952516647200346,groupB
0.43952516647200346,groupA
0.43952516647200346,groupA
0.43952516647200346,groupB
0.43952516647200346,groupB
0.43952516647200346,groupA
0.43952516647200346,groupB
0.43952516647200346,groupA
0.43952516647200346,groupA
0.43952516647200346,groupB
0.43952516647200346,groupB
0.43952516647200346,groupB
0.43952516647200346,groupA
0.43952516647200346,groupA
0.43952516647200346,groupA
0.43952516647200346,groupB
0.43952516647200346,groupA
0.43952516647200346,groupB
0.43952516647200346,groupA
0.43952516647200346,groupB
0.43952516647200346,groupB
0.43952516647200346,groupB
0.43952516647200346,groupA
0.43952516647200346,groupB
0.43952516647200346,groupA
0.43952516647200346,groupB
0.43952516647200346,groupA
0.43952516647200346,groupB
0.43952516647200346,groupA
0.43952516647200346,groupA
0.43952516647200346,groupA
0.43952516647200346,groupA
0.43952516647200346,groupB
0.43952516647200346,groupA
0.43952516647200346,groupB
0.43952516647200346,groupA
0.43952516647200346,groupA
0.43952516647200346,groupA
0.43952516647200346,groupA
0.43952516647200346,groupB
0.43952516647200346,groupB
0.43952516647200346,groupA
0.43952516647200346,groupA
0.43952516647200346,groupB
0.43952516647200346,groupA
0.43952516647200346,groupA
0.43952516647200346,groupA
0.43952516647200346,groupA
0.43952516647200346,groupB
0.43952516647200346,groupA
0.43952516647200346,groupB
0.43952516647200346,groupA
0.43952516647200346,groupB
0.43952516647200346,groupB
0.43952516647200346,groupA
0.43952516647200346,groupA
0.43952516647200346,groupA
0.43952516647200346,groupA
0.43952516647200346,groupB
0.43952516647200346,groupB
0.43952516647200346,groupB
0.43952516647200346,groupB
0.43952516647200346,groupB
0.43952516647200346,groupB
0.43952516647200346,groupB
0.43952516647200346,groupB
0.43952516647200346,groupA
0.43952516647200346,groupB
0.43952516647200346,groupA
0.43952516647200346,groupA
0.43952516647200346,groupB
0.43952516647200346,groupA
0.43952516647200346,groupB
0.43952516647200346,groupB
0.43952516647200346,groupA
0.43952516647200346,groupA
0.43952516647200346,groupB
0.43952516647200346,groupB
0.43952516647200346,groupA
0.43952516647200346,groupA
0.43952516647200346,groupB
0.43952516647200346,groupB
0.43952516647200346,groupA
0.43952516647200346,groupA
0.43952516647200346,groupB
0.43952516647200346,groupA
0.43952516647200346,groupB
0.43952516647200346,groupB
0.43952516647200346,groupB
0.43952516647200346,groupB
0.43952516647200346,groupA
0.43952516647200346,groupA
0.43952516647200346,groupA
0.43952516647200346,groupA
0.43952516647200346,groupB
0.43952516647200346,groupB
0.43952516647200346,groupA
0.43952516647200346,groupB
0.43952516647200346,groupB
0.43952516647200346,groupB
0.43952516647200346,groupB
0.43952516647200346,groupB
0.43952516647200346,groupA
0.43952516647200346,groupA
0.43952516647200346,groupB
0.43952516647200346,groupA
0.43952516647200346,groupB
0.43952516647200346,groupA
0.43952516647200346,groupB
0.43952516647200346,groupB
0.43952516647200346,groupB
0.43952516647200346,groupB
0.43952516647200346,groupA
0.43952516647200346,groupB
0.43952516647200346,groupA
0.43952516647200346,groupA
0.43952516647200346,groupA
0.43952516647200346,groupA
0.43952516647200346,groupB
0.43952516647200346,groupB
0.43952516647200346,groupB
0.43952516647200346,groupB
0.43952516647200346,groupA
0.43952516647200346,groupA
0.43952516647200346,groupB
0.43952516647200346,groupA
0.43952516647200346,groupB
0.43952516647200346,groupA
0.43952516647200346,groupB
0.43952516647200346,groupA
0.43952516647200346,groupA
0.43952516647200346,groupA
0.43952516647200346,groupA
0.43952516647200346,groupB
0.43952516647200346,groupB
0.43952516647200346,groupA
0.43952516647200346,groupB
0.43952516647200346,groupB
0.43952516647200346,groupA
0.43952516647200346,groupA
0.43952516647200346,groupA
0.43952516647200346,groupB
0.43952516647200346,groupB
0.43952516647200346,groupB
0.43952516647200346,groupA
0.43952516647200346,groupB
0.43952516647200346,groupB
0.43952516647200346,groupA
0.43952516647200346,groupA
0.43952516647200346,groupB
0.43952516647200346,groupA
0.43952516647200346,groupA
0.43952516647200346,groupB
0.43952516647200346,groupA
0.43952516647200346,groupB
0.43952516647200346,groupA
0.43952516647200346,groupA
0.43952516647200346,groupB
0.43952516647200346,groupA
0.43952516647200346,groupB
0.43952516647200346,groupB
0.43952516647200346,groupA
0.43952516647200346,groupA
0.43952516647200346,groupB
0.43952516647200346,groupB
0.43952516647200346,groupA
0.43952516647200346,groupB
0.43952516647200346,groupB
0.43952516647200346,groupB
0.43952516647200346,groupA
0.43952516647200346,groupB
0.43952516647200346,groupA
0.43952516647200346,groupA
0.43952516647200346,groupB
0.43952516647200346,groupA
0.43952516647200346,groupB
0.43952516647200346,groupA
0.43952516647200346,groupA
0.43952516647200346,groupA
0.43952516647200346,groupB
0.43952516647200346,groupA
0.43952516647200346,groupA
0.43952516647200346,groupB
0.43952516647200346,groupB
0.43952516647200346,groupA
0.43952516647200346,groupB
0.43952516647200346,groupB
0.43952516647200346,groupB
0.43952516647200346,groupA
0.43952516647200346,groupA
0.43952516647200346,groupB
0.43952516647200346,groupB
0.43952516647200346,groupA
0.43952516647200346,groupB
0.43952516647200346,groupB
0.43952516647200346,groupB
0.43952516647200346,groupB
0.43952516647200346,groupB
0.43952516647200346,groupB
0.43952516647200346,groupB
0.43952516647200346,groupA
0.43952516647200346,groupB
0.43952516647200346,groupA
0.43952516647200346,groupB
0.43952516647200346,groupA
0.43952516647200346,groupB
0.43952516647200346,groupB
0.43952516647200346,groupB
0.43952516647200346,groupA
0.43952516647200346,groupB
0.43952516647200346,groupB
0.43952516647200346,groupA
0.43952516647200346,groupA
0.43952516647200346,groupB
0.43952516647200346,groupB
0.43952516647200346,groupA
0.43952516647200346,groupA
0.43952516647200346,groupB
0.43952516647200346,groupA
0.43952516647200346,groupA
0.43952516647200346,groupB
0.43952516647200346,groupB
0.43952516647200346,groupA
0.43952516647200346,groupA
0.43952516647200346,groupB
0.43952516647200346,groupA
0.43952516647200346,groupB
0.43952516647200346,groupB
0.43952516647200346,groupB
0.43952516647200346,groupA
0.43952516647200346,groupB
0.43952516647200346,groupA
0.43952516647200346,groupA
0.43952516647200346,groupB
0.43952516647200346,groupA
0.43952516647200346,groupA
0.43952516647200346,groupB
0.43952516647200346,groupA
0.43952516647200346,groupA
0.43952516647200346,groupB
0.43952516647200346,groupB
0.43952516647200346,groupB
0.43952516647200346,groupB
0.43952516647200346,groupB
0.43952516647200346,groupA
0.43952516647200346,groupA
0.43952516647200346,groupA
0.43952516647200346,groupB
0.43952516647200346,groupB
0.43952516647200346,groupB
0.43952516647200346,groupA
0.43952516647200346,groupB
0.43952516647200346,groupA
0.43952516647200346,groupA
0.43952516647200346,groupA
0.43952516647200346,groupA
0.43952516647200346,groupA
0.43952516647200346,groupB
0.43952516647200346,groupA
0.43952516647200346,groupA
0.43952516647200346,groupA
0.43952516647200346,groupB
0.43952516647200346,groupA
0.43952516647200346,groupB
0.43952516647200346,groupA
0.43952516647200346,groupA
0.43952516647200346,groupB
0.43952516647200346,groupA
0.43952516647200346,groupA
0.43952516647200346,groupB
0.43952516647200346,groupB
0.43952516647200346,groupA
0.43952516647200346,groupB
0.43952516647200346,groupA
0.43952516647200346,groupB
0.43952516647200346,groupA
0.43952516647200346,groupB
0.43952516647200346,groupA
0.43952516647200346,groupA
0.43952516647200346,groupA
0.43952516647200346,groupB
0.43952516647200346,groupA
0.43952516647200346,groupB
0.43952516647200346,groupA
0.43952516647200346,groupB
0.43952516647200346,groupA
0.43952516647200346,groupA
0.43952516647200346,groupA
0.43952516647200346,groupB
0.43952516647200346,groupB
0.43952516647200346,groupB
0.43952516647200346,groupA
0.43952516647200346,groupA
0.43952516647200346,groupA
0.43952516647200346,groupB
0.43952516647200346,groupB
0.43952516647200346,groupB
0.43952516647200346,groupB
0.43952516647200346,groupA
0.43952516647200346,groupB
0.43952516647200346,groupB
0.43952516647200346,groupA
0.43952516647200346,groupB
0.43952516647200346,groupA
0.43952516647200346,groupA
0.43952516647200346,groupA
0.43952516647200346,groupA
0.43952516647200346,groupB
0.43952516647200346,groupA
0.43952516647200346,groupA
0.43952516647200346,groupA
0.43952516647200346,groupA
0.43952516647200346,groupB
0.43952516647200346,groupA
0.43952516647200346,groupA
0.43952516647200346,groupA
0.43952516647200346,groupB
0.43952516647200346,groupB
0.43952516647200346,groupA
0.43952516647200346,groupB
0.43952516647200346,groupA
0.43952516647200346,groupB
0.43952516647200346,groupB
0.43952516647200346,groupB
0.43952516647200346,groupA
0.43952516647200346,groupB
0.43952516647200346,groupB
0.43952516647200346,groupA
0.43952516647200346,groupA
0.43952516647200346,groupB
0.43952516647200346,groupA
0.43952516647200346,groupA
0.43952516647200346,groupA
0.43952516647200346,groupA
0.43952516647200346,groupB
0.43952516647200346,groupB
0.43952516647200346,groupB
0.43952516647200346,groupA
0.43952516647200346,groupA
0.43952516647200346,groupA
0.43952516647200346,groupA
0.43952516647200346,groupA
0.43952516647200346,groupB
0.43952516647200346,groupA
0.43952516647200346,groupA
0.43952516647200346,groupB
0.43952516647200346,groupB
0.43952516647200346,groupB
0.43952516647200346,groupA
0.43952516647200346,groupB
0.43952516647200346,groupB
0.43952516647200346,groupB
0.43952516647200346,groupA
0.43952516647200346,groupB
0.43952516647200346,groupB
0.43952516647200346,groupB
0.43952516647200346,groupA
0.43952516647200346,groupA
0.43952516647200346,groupA
0.43952516647200346,groupB
0.43952516647200346,groupB
0.43952516647200346,groupB
0.43952516647200346,groupB
0.43952516647200346,groupB
0.43952516647200346,groupA
0.43952516647200346,groupA
0.43952516647200346,groupB
0.43952516647200346,groupA
0.43952516647200346,groupB
0.43952516647200346,groupB
0.43952516647200346,groupA
0.43952516647200346,groupB
0.43952516647200346,groupA
0.43952516647200346,groupB
0.43952516647200346,groupB
0.43952516647200346,groupA
0.43952516647200346,groupA
0.43952516647200346,groupA
0.43952516647200346,groupA
0.43952516647200346,groupA
0.43952516647200346,groupB
0.43952516647200346,groupB
0.43952516647200346,groupA
0.43952516647200346,groupB
0.43952516647200346,groupB
0.43952516647200346,groupB
0.43952516647200346,groupA
0.43952516647200346,groupB
0.43952516647200346,groupA
0.43952516647200346,groupA
0.43952516647200346,groupA
0.43952516647200346,groupB
0.43952516647200346,groupA
0.43952516647200346,groupB
0.43952516647200346,groupB
0.43952516647200346,groupA
0.43952516647200346,groupB
0.43952516647200346,groupA
0.43952516647200346,groupA
0.43952516647200346,groupB
0.43952516647200346,groupB
0.43952516647200346,groupA
0.43952516647200346,groupA
0.43952516647200346,groupB
0.43952516647200346,groupB
0.43952516647200346,groupB
0.43952516647200346,groupB
0.43952516647200346,groupB
0.43952516647200346,groupB
0.43952516647200346,groupA
0.43952516647200346,groupA
0.43952516647200346,groupB
0.43952516647200346,groupB
0.43952516647200346,groupA
0.43952516647200346,groupA
0.43952516647200346,groupA
0.43952516647200346,groupA
0.43952516647200346,groupA
0.43952516647200346,groupB
0.43952516647200346,groupA
0.43952516647200346,groupA
0.43952516647200346,groupB
0.43952516647200346,groupB
0.43952516647200346,groupB
0.43952516647200346,groupB
0.43952516647200346,groupB
0.43952516647200346,groupB
0.43952516647200346,groupA
0.43952516647200346,groupB
0.43952516647200346,groupB
0.43952516647200346,groupB
0.43952516647200346,groupA
0.43952516647200346,groupA
0.43952516647200346,groupA
0.43952516647200346,groupB
0.43952516647200346,groupA
0.43952516647200346,groupA
0.43952516647200346,groupB
0.43952516647200346,groupB
0.43952516647200346,groupA
0.43952516647200346,groupB
0.43952516647200346,groupB
0.43952516647200346,groupB
0.43952516647200346,groupA
0.43952516647200346,groupA
0.43952516647200346,groupB
0.43952516647200346,groupB
0.43952516647200346,groupB
0.43952516647200346,groupB
0.43952516647200346,groupB
0.43952516647200346,groupA
0.43952516647200346,groupB
0.43952516647200346,groupA
0.43952516647200346,groupB
0.43952516647200346,groupA
0.43952516647200346,groupA
0.43952516647200346,groupA
0.43952516647200346,groupA
0.43952516647200346,groupB
0.43952516647200346,groupB
0.43952516647200346,groupA
0.43952516647200346,groupB
0.43952516647200346,groupA
0.43952516647200346,groupA
0.43952516647200346,groupB
0.43952516647200346,groupA
0.43952516647200346,groupA
0.43952516647200346,groupA
0.43952516647200346,groupB
0.43952516647200346,groupB
0.43952516647200346,groupA
0.43952516647200346,groupB
0.43952516647200346,groupB
0.43952516647200346,groupB
0.43952516647200346,groupB
0.43952516647200346,groupA
0.43952516647200346,groupB
0.43952516647200346,groupA
0.43952516647200346,groupA
0.43952516647200346,groupB
0.43952516647200346,groupA
0.43952516647200346,groupB
0.43952516647200346,groupA
0.43952516647200346,groupB
0.43952516647200346,groupA
0.43952516647200346,groupB
0.43952516647200346,groupB
0.43952516647200346,groupA
0.43952516647200346,groupB
0.43952516647200346,groupB
0.43952516647200346,groupB
0.43952516647200346,groupA
0.43952516647200346,groupB
0.43952516647200346,groupA
0.43952516647200346,groupA
0.43952516647200346,groupA
0.43952516647200346,groupA
0.43952516647200346,groupA
0.43952516647200346,groupB
0.43952516647200346,groupB
0.43952516647200346,groupB
0.43952516647200346,groupB
0.43952516647200346,groupB
0.43952516647200346,groupB
0.43952516647200346,groupA
0.43952516647200346,groupB
0.43952516647200346,groupA
0.43952516647200346,groupB
0.43952516647200346,groupB
0.43952516647200346,groupB
0.43952516647200346,groupB
0.43952516647200346,groupB
0.43952516647200346,groupA
0.43952516647200346,groupA
0.43952516647200346,groupB
0.43952516647200346,groupA
0.43952516647200346,groupB
0.43952516647200346,groupB
0.43952516647200346,groupB
0.43952516647200346,groupB
0.43952516647200346,groupA
0.43952516647200346,groupB
0.43952516647200346,groupB
0.43952516647200346,groupA
0.43952516647200346,groupB
0.43952516647200346,groupB
0.43952516647200346,groupB
0.43952516647200346,groupB
0.43952516647200346,groupB
0.43952516647200346,groupB
0.43952516647200346,groupB
0.43952516647200346,groupB
0.43952516647200346,groupB
0.43952516647200346,groupB
0.43952516647200346,groupA
0.43952516647200346,groupA
0.43952516647200346,groupB
0.43952516647200346,groupB
0.43952516647200346,groupA
0.43952516647200346,groupA
0.43952516647200346,groupA
0.43952516647200346,groupA
0.43952516647200346,groupA
0.43952516647200346,groupA
0.43952516647200346,groupA
0.43952516647200346,groupA
0.43952516647200346,groupA
0.43952516647200346,groupA
0.43952516647200346,groupB
0.43952516647200346,groupA
0.43952516647200346,groupB
0.43952516647200346,groupB
0.43952516647200346,groupB
0.43952516647200346,groupB
0.43952516647200346,groupB
0.43952516647200346,groupA
0.43952516647200346,groupA
0.43952516647200346,groupB
0.43952516647200346,groupB
0.43952516647200346,groupB
0.43952516647200346,groupA
0.43952516647200346,groupB
0.43952516647200346,groupA
0.43952516647200346,groupB
0.43952516647200346,groupA
0.43952516647200346,groupA
0.43952516647200346,groupB
0.43952516647200346,groupA
0.43952516647200346,groupA
0.43952516647200346,groupB
0.43952516647200346,groupA
0.43952516647200346,groupA
0.43952516647200346,groupB
0.43952516647200346,groupA
0.43952516647200346,groupB
0.43952516647200346,groupA
0.43952516647200346,groupB
0.43952516647200346,groupB
0.43952516647200346,groupA
0.43952516647200346,groupA
0.43952516647200346,groupB
0.43952516647200346,groupA
0.43952516647200346,groupB
0.43952516647200346,groupA
0.43952516647200346,groupB
0.43952516647200346,groupA
0.43952516647200346,groupB
0.43952516647200346,groupB
0.43952516647200346,groupA
0.43952516647200346,groupA
0.43952516647200346,groupB
0.43952516647200346,groupA
0.43952516647200346,groupB
0.43952516647200346,groupA
0.43952516647200346,groupA
0.43952516647200346,groupB
0.43952516647200346,groupA
0.43952516647200346,groupB
0.43952516647200346,groupB
0.43952516647200346,groupA
0.43952516647200346,groupA
0.43952516647200346,groupB
0.43952516647200346,groupB
0.43952516647200346,groupB
0.43952516647200346,groupA
0.43952516647200346,groupB
0.43952516647200346,groupB
0.43952516647200346,groupA
0.43952516647200346,groupB
0.43952516647200346,groupB
0.43952516647200346,groupB
0.43952516647200346,groupA
0.43952516647200346,groupA
0.43952516647200346,groupB
0.43952516647200346,groupB
0.43952516647200346,groupB
0.43952516647200346,groupA
0.43952516647200346,groupA
0.43952516647200346,groupB
0.43952516647200346,groupB
0.43952516647200346,groupA
0.43952516647200346,groupA
0.43952516647200346,groupA
0.43952516647200346,groupA
0.43952516647200346,groupA
0.43952516647200346,groupB
0.43952516647200346,groupA
0.43952516647200346,groupA
0.43952516647200346,groupA
0.43952516647200346,groupB
0.43952516647200346,groupB
0.43952516647200346,groupB
0.43952516647200346,groupB
0.43952516647200346,groupB
0.43952516647200346,groupB
0.43952516647200346,groupA
0.43952516647200346,groupA
0.43952516647200346,groupA
0.43952516647200346,groupB
0.43952516647200346,groupA
0.43952516647200346,groupA
0.43952516647200346,groupA
0.43952516647200346,groupB
0.43952516647200346,groupB
0.43952516647200346,groupA
0.43952516647200346,groupB
0.43952516647200346,groupA
0.43952516647200346,groupB
0.43952516647200346,groupB
0.43952516647200346,groupB
0.43952516647200346,groupB
0.43952516647200346,groupB
0.43952516647200346,groupA
0.43952516647200346,groupB
0.43952516647200346,groupB
0.43952516647200346,groupB
0.43952516647200346,groupA
0.43952516647200346,groupA
0.43952516647200346,groupB
0.43952516647200346,groupB
0.43952516647200346,groupB
0.43952516647200346,groupB
0.43952516647200346,groupA
0.43952516647200346,groupB
0.43952516647200346,groupB
0.43952516647200346,groupA
0.43952516647200346,groupB
0.43952516647200346,groupA
0.43952516647200346,groupA
0.43952516647200346,groupA
0.43952516647200346,groupB
0.43952516647200346,groupA
0.43952516647200346,groupA
0.43952516647200346,groupB
0.43952516647200346,groupB
0.43952516647200346,groupB
0.43952516647200346,groupB
0.43952516647200346,groupB
0.43952516647200346,groupB
0.43952516647200346,groupB
0.43952516647200346,groupA
0.43952516647200346,groupA
0.43952516647200346,groupB
0.43952516647200346,groupA
0.43952516647200346,groupA
0.43952516647200346,groupA
0.43952516647200346,groupB
0.43952516647200346,groupB
0.43952516647200346,groupA
0.43952516647200346,groupA
0.43952516647200346,groupA
0.43952516647200346,groupB
0.43952516647200346,groupB
0.43952516647200346,groupA
0.43952516647200346,groupA
0.43952516647200346,groupB
0.43952516647200346,groupA
0.43952516647200346,groupA
0.43952516647200346,groupA
0.43952516647200346,groupB
0.43952516647200346,groupB
0.43952516647200346,groupB
0.43952516647200346,groupA
0.43952516647200346,groupB
0.43952516647200346,groupB
0.43952516647200346,groupA
0.43952516647200346,groupB
0.43952516647200346,groupB
0.43952516647200346,groupA
0.43952516647200346,groupB
0.43952516647200346,groupB
0.43952516647200346,groupB
0.43952516647200346,groupA
0.43952516647200346,groupB
0.43952516647200346,groupA
0.43952516647200346,groupB
0.43952516647200346,groupB
0.43952516647200346,groupA
0.43952516647200346,groupB
0.43952516647200346,groupB
0.43952516647200346,groupA
0.43952516647200346,groupB
0.43952516647200346,groupB
0.43952516647200346,groupA
0.43952516647200346,groupA
0.43952516647200346,groupA
0.43952516647200346,groupA
0.43952516647200346,groupB
0.43952516647200346,groupA
0.43952516647200346,groupB
0.43952516647200346,groupB
0.43952516647200346,groupA
0.43952516647200346,groupB
0.43952516647200346,groupB
0.43952516647200346,groupB
0.43952516647200346,groupA
0.43952516647200346,groupA
0.43952516647200346,groupA
0.43952516647200346,groupA
0.43952516647200346,groupA
0.43952516647200346,groupA
0.43952516647200346,groupB
0.43952516647200346,groupB
0.43952516647200346,groupB
0.43952516647200346,groupA
0.43952516647200346,groupA
0.43952516647200346,groupB
0.43952516647200346,groupB
0.43952516647200346,groupB
0.43952516647200346,groupB
0.43952516647200346,groupB
0.43952516647200346,groupA
0.43952516647200346,groupA
0.43952516647200346,groupB
0.43952516647200346,groupB
0.43952516647200346,groupB
0.43952516647200346,groupB
0.43952516647200346,groupA
0.43952516647200346,groupA
0.43952516647200346,groupB
0.43952516647200346,groupA
0.43952516647200346,groupB
0.43952516647200346,groupB
0.43952516647200346,groupA
0.43952516647200346,groupB
0.43952516647200346,groupA
0.43952516647200346,groupA
0.43952516647200346,groupB
0.43952516647200346,groupA
0.43952516647200346,groupA
0.43952516647200346,groupB
0.43952516647200346,groupB
0.43952516647200346,groupA
0.43952516647200346,groupA
0.43952516647200346,groupA
0.43952516647200346,groupB
0.43952516647200346,groupA
0.43952516647200346,groupA
0.43952516647200346,groupA
0.43952516647200346,groupA
0.43952516647200346,groupA
0.43952516647200346,groupB
0.43952516647200346,groupB
0.43952516647200346,groupA
0.43952516647200346,groupB
0.43952516647200346,groupB
0.43952516647200346,groupB
0.43952516647200346,groupB
0.43952516647200346,groupB
0.43952516647200346,groupA
0.43952516647200346,groupB
0.43952516647200346,groupB
0.43952516647200346,groupB
0.43952516647200346,groupB
0.43952516647200346,groupB
0.43952516647200346,groupA
0.43952516647200346,groupA
0.43952516647200346,groupA
0.43952516647200346,groupB
0.43952516647200346,groupB
0.43952516647200346,groupB
0.43952516647200346,groupB
0.43952516647200346,groupA
0.43952516647200346,groupB
0.43952516647200346,groupB
0.43952516647200346,groupA
0.43952516647200346,groupA
0.43952516647200346,groupA
0.43952516647200346,groupB
0.43952516647200346,groupA
0.43952516647200346,groupA
0.43952516647200346,groupA
0.43952516647200346,groupA
0.43952516647200346,groupA
0.43952516647200346,groupB
0.43952516647200346,groupA
0.43952516647200346,groupA
0.43952516647200346,groupB
0.43952516647200346,groupB
0.43952516647200346,groupB
0.43952516647200346,groupB
0.43952516647200346,groupB
0.43952516647200346,groupA
0.43952516647200346,groupA
0.43952516647200346,groupB
0.43952516647200346,groupA
0.43952516647200346,groupA
0.43952516647200346,groupA
0.43952516647200346,groupA
0.43952516647200346,groupB
0.43952516647200346,groupA
0.43952516647200346,groupB
0.43952516647200346,groupA
0.43952516647200346,groupB
0.43952516647200346,groupA
0.43952516647200346,groupB
0.43952516647200346,groupB
0.43952516647200346,groupA
0.43952516647200346,groupB
0.43952516647200346,groupB
0.43952516647200346,groupA
0.43952516647200346,groupB
0.43952516647200346,groupB
0.43952516647200346,groupA
0.43952516647200346,groupB
0.43952516647200346,groupA
0.43952516647200346,groupA
0.43952516647200346,groupA
0.43952516647200346,groupA
0.43952516647200346,groupB
0.43952516647200346,groupB
0.43952516647200346,groupA
0.43952516647200346,groupB
0.43952516647200346,groupA
0.43952516647200346,groupB
0.43952516647200346,groupA
0.43952516647200346,groupA
0.43952516647200346,groupB
0.43952516647200346,groupB
0.43952516647200346,groupB
0.43952516647200346,groupA
0.43952516647200346,groupB
0.43952516647200346,groupB
0.43952516647200346,groupA
0.43952516647200346,groupB
0.43952516647200346,groupA
0.43952516647200346,groupB
0.43952516647200346,groupB
0.43952516647200346,groupB
0.43952516647200346,groupA
0.43952516647200346,groupA
0.43952516647200346,groupB
0.43952516647200346,groupA
0.43952516647200346,groupB
0.43952516647200346,groupA
0.43952516647200346,groupB
0.43952516647200346,groupA
0.43952516647200346,groupA
0.43952516647200346,groupB
0.43952516647200346,groupB
0.43952516647200346,groupB
0.43952516647200346,groupA
0.43952516647200346,groupA
0.43952516647200346,groupA
0.43952516647200346,groupA
0.43952516647200346,groupB
0.43952516647200346,groupB
0.43952516647200346,groupB
0.43952516647200346,groupB
0.43952516647200346,groupA
0.43952516647200346,groupB
0.43952516647200346,groupB
0.43952516647200346,groupB
0.43952516647200346,groupA
0.43952516647200346,groupA
0.43952516647200346,groupB
0.43952516647200346,groupB
0.43952516647200346,groupA
0.43952516647200346,groupB
0.43952516647200346,groupB
0.43952516647200346,groupA
0.43952516647200346,groupA
0.43952516647200346,groupA
0.43952516647200346,groupB
0.43952516647200346,groupA
0.43952516647200346,groupB
0.43952516647200346,groupB
0.43952516647200346,groupA
0.43952516647200346,groupB
0.43952516647200346,groupA
0.43952516647200346,groupA
0.43952516647200346,groupA
0.43952516647200346,groupB
0.43952516647200346,groupA
0.43952516647200346,groupB
0.43952516647200346,groupB
0.43952516647200346,groupB
0.43952516647200346,groupA
0.43952516647200346,groupA
0.43952516647200346,groupB
0.43952516647200346,groupB
0.43952516647200346,groupB
0.43952516647200346,groupB
0.43952516647200346,groupB
0.43952516647200346,groupB
0.43952516647200346,groupB
0.43952516647200346,groupB
0.43952516647200346,groupA
0.43952516647200346,groupB
0.43952516647200346,groupB
0.43952516647200346,groupB
0.43952516647200346,groupA
0.43952516647200346,groupA
0.43952516647200346,groupB
0.43952516647200346,groupA
0.43952516647200346,groupB
0.43952516647200346,groupB
0.43952516647200346,groupB
0.43952516647200346,groupA
0.43952516647200346,groupB
0.43952516647200346,groupB
0.43952516647200346,groupA
0.43952516647200346,groupA
0.43952516647200346,groupB
0.43952516647200346,groupB
0.43952516647200346,groupA
0.43952516647200346,groupA
0.43952516647200346,groupB
0.43952516647200346,groupB
0.43952516647200346,groupA
0.43952516647200346,groupA
0.43952516647200346,groupA
0.43952516647200346,groupB
0.43952516647200346,groupB
0.43952516647200346,groupB
0.43952516647200346,groupB
0.43952516647200346,groupB
0.43952516647200346,groupA
0.43952516647200346,groupA
0.43952516647200346,groupA
0.43952516647200346,groupB
0.43952516647200346,groupA
0.43952516647200346,groupA
0.43952516647200346,groupB
0.43952516647200346,groupA
0.43952516647200346,groupB
0.43952516647200346,groupA
0.43952516647200346,groupB
0.43952516647200346,groupB
0.43952516647200346,groupB
0.43952516647200346,groupB
0.43952516647200346,groupB
0.43952516647200346,groupA
0.43952516647200346,groupA
0.43952516647200346,groupA
0.43952516647200346,groupB
0.43952516647200346,groupA
0.43952516647200346,groupB
0.43952516647200346,groupA
0.43952516647200346,groupB
0.43952516647200346,groupB
0.43952516647200346,groupA
0.43952516647200346,groupA
0.43952516647200346,groupA
0.43952516647200346,groupB
0.43952516647200346,groupA
0.43952516647200346,groupB
0.43952516647200346,groupB
0.43952516647200346,groupA
0.43952516647200346,groupA
0.43952516647200346,groupB
0.43952516647200346,groupB
0.43952516647200346,groupB
0.43952516647200346,groupA
0.43952516647200346,groupA
0.43952516647200346,groupB
0.43952516647200346,groupB
0.43952516647200346,groupB
0.43952516647200346,groupA
0.43952516647200346,groupB
0.43952516647200346,groupB
0.43952516647200346,groupB
0.43952516647200346,groupA
0.43952516647200346,groupA
0.43952516647200346,groupA
0.43952516647200346,groupA
0.43952516647200346,groupA
0.43952516647200346,groupA
0.43952516647200346,groupB
0.43952516647200346,groupB
0.43952516647200346,groupA
0.43952516647200346,groupB
0.43952516647200346,groupB
0.43952516647200346,groupA
0.43952516647200346,groupA
0.43952516647200346,groupB
0.43952516647200346,groupA
0.43952516647200346,groupB
0.43952516647200346,groupA
0.43952516647200346,groupA
0.43952516647200346,groupA
0.43952516647200346,groupB
0.43952516647200346,groupB
0.43952516647200346,groupB
0.43952516647200346,groupB
0.43952516647200346,groupA
0.43952516647200346,groupB
0.43952516647200346,groupA
0.43952516647200346,groupB
0.43952516647200346,groupB
0.43952516647200346,groupA
0.43952516647200346,groupB
0.43952516647200346,groupB
0.43952516647200346,groupB
0.43952516647200346,groupB
0.43952516647200346,groupB
0.43952516647200346,groupB
0.43952516647200346,groupA
0.43952516647200346,groupB
0.43952516647200346,groupA
0.43952516647200346,groupB
0.43952516647200346,groupB
0.43952516647200346,groupA
0.43952516647200346,groupB
0.43952516647200346,groupB
0.43952516647200346,groupA
0.43952516647200346,groupA
0.43952516647200346,groupB
0.43952516647200346,groupA
0.43952516647200346,groupB
0.43952516647200346,groupA
0.43952516647200346,groupB
0.43952516647200346,groupA
0.43952516647200346,groupA
0.43952516647200346,groupB
0.43952516647200346,groupA
0.43952516647200346,groupA
0.43952516647200346,groupA
0.43952516647200346,groupA
0.43952516647200346,groupA
0.43952516647200346,groupB
0.43952516647200346,groupA
0.43952516647200346,groupB
0.43952516647200346,groupA
0.43952516647200346,groupA
0.43952516647200346,groupA
0.43952516647200346,groupA
0.43952516647200346,groupB
0.43952516647200346,groupB
0.43952516647200346,groupA
0.43952516647200346,groupB
0.43952516647200346,groupA
0.43952516647200346,groupA
0.43952516647200346,groupA
0.43952516647200346,groupA
0.43952516647200346,groupB
0.43952516647200346,groupB
0.43952516647200346,groupB
0.43952516647200346,groupB
0.43952516647200346,groupA
0.43952516647200346,groupB
0.43952516647200346,groupA
0.43952516647200346,groupB
0.43952516647200346,groupB
0.43952516647200346,groupA
0.43952516647200346,groupB
0.43952516647200346,groupB
0.43952516647200346,groupA
0.43952516647200346,groupB
0.43952516647200346,groupB
0.43952516647200346,groupA
0.43952516647200346,groupB
0.43952516647200346,groupB
0.43952516647200346,groupB
0.43952516647200346,groupA
0.43952516647200346,groupB
0.43952516647200346,groupA
0.43952516647200346,groupA
0.43952516647200346,groupB
0.43952516647200346,groupB
0.43952516647200346,groupA
0.43952516647200346,groupA
0.43952516647200346,groupA
0.43952516647200346,groupA
0.43952516647200346,groupB
0.43952516647200346,groupA
0.43952516647200346,groupA
0.43952516647200346,groupA
0.43952516647200346,groupB
0.43952516647200346,groupA
0.43952516647200346,groupA
0.43952516647200346,groupA
0.43952516647200346,groupA
0.43952516647200346,groupB
0.43952516647200346,groupB
0.43952516647200346,groupB
0.43952516647200346,groupA
0.43952516647200346,groupA
0.43952516647200346,groupB
0.43952516647200346,groupB
0.43952516647200346,groupB
0.43952516647200346,groupB
0.43952516647200346,groupB
0.43952516647200346,groupB
0.43952516647200346,groupA
0.43952516647200346,groupB
0.43952516647200346,groupB
0.43952516647200346,groupB
0.43952516647200346,groupA
0.43952516647200346,groupA
0.43952516647200346,groupA
0.43952516647200346,groupA
0.43952516647200346,groupB
0.43952516647200346,groupA
0.43952516647200346,groupB
0.43952516647200346,groupB
0.43952516647200346,groupB
0.43952516647200346,groupA
0.43952516647200346,groupB
0.43952516647200346,groupB
0.43952516647200346,groupA
0.43952516647200346,groupA
0.43952516647200346,groupB
0.43952516647200346,groupB
0.43952516647200346,groupB
0.43952516647200346,groupB
0.43952516647200346,groupB
0.43952516647200346,groupB
0.43952516647200346,groupA
0.43952516647200346,groupB
0.43952516647200346,groupB
0.43952516647200346,groupB
0.43952516647200346,groupB
0.43952516647200346,groupB
0.43952516647200346,groupA
0.43952516647200346,groupB
0.43952516647200346,groupA
0.43952516647200346,groupB
0.43952516647200346,groupA
0.43952516647200346,groupB
0.43952516647200346,groupB
0.43952516647200346,groupB
0.43952516647200346,groupA
0.43952516647200346,groupB
0.43952516647200346,groupB
0.43952516647200346,groupB
0.43952516647200346,groupB
0.43952516647200346,groupB
0.43952516647200346,groupB
0.43952516647200346,groupB
0.43952516647200346,groupA
0.43952516647200346,groupA
0.43952516647200346,groupB
0.43952516647200346,groupA
0.43952516647200346,groupB
0.43952516647200346,groupA
0.43952516647200346,groupB
0.43952516647200346,groupB
0.43952516647200346,groupB
0.43952516647200346,groupB
0.43952516647200346,groupA
0.43952516647200346,groupB
0.43952516647200346,groupB
0.43952516647200346,groupB
0.43952516647200346,groupB
0.43952516647200346,groupB
0.43952516647200346,groupA
0.43952516647200346,groupA
0.43952516647200346,groupA
0.43952516647200346,groupA
0.43952516647200346,groupB
0.43952516647200346,groupB
0.43952516647200346,groupB
0.43952516647200346,groupB
0.43952516647200346,groupA
0.43952516647200346,groupB
0.43952516647200346,groupA
0.43952516647200346,groupA
0.43952516647200346,groupA
0.43952516647200346,groupA
0.43952516647200346,groupA
0.43952516647200346,groupB
0.43952516647200346,groupB
0.43952516647200346,groupA
0.43952516647200346,groupA
0.43952516647200346,groupB
0.43952516647200346,groupA
0.43952516647200346,groupA
0.43952516647200346,groupB
0.43952516647200346,groupA
0.43952516647200346,groupB
0.43952516647200346,groupA
0.43952516647200346,groupA
0.43952516647200346,groupB
0.43952516647200346,groupA
0.43952516647200346,groupA
0.43952516647200346,groupA
0.43952516647200346,groupA
0.43952516647200346,groupB
0.43952516647200346,groupB
0.43952516647200346,groupA
0.43952516647200346,groupA
0.43952516647200346,groupB
0.43952516647200346,groupB
0.43952516647200346,groupB
0.43952516647200346,groupA
0.43952516647200346,groupB
0.43952516647200346,groupB
0.43952516647200346,groupB
0.43952516647200346,groupB
0.43952516647200346,groupB
0.43952516647200346,groupA
0.43952516647200346,groupB
0.43952516647200346,groupB
0.43952516647200346,groupA
0.43952516647200346,groupA
0.43952516647200346,groupB
0.43952516647200346,groupB
0.43952516647200346,groupB
0.43952516647200346,groupB
0.43952516647200346,groupA
0.43952516647200346,groupB
0.43952516647200346,groupA
0.43952516647200346,groupB
0.43952516647200346,groupB
0.43952516647200346,groupB
0.43952516647200346,groupA
0.43952516647200346,groupB
0.43952516647200346,groupB
0.43952516647200346,groupA
0.43952516647200346,groupB
0.43952516647200346,groupB
0.43952516647200346,groupB
0.43952516647200346,groupB
0.43952516647200346,groupB
0.43952516647200346,groupB
0.43952516647200346,groupB
0.43952516647200346,groupA
0.43952516647200346,groupB
0.43952516647200346,groupB
0.43952516647200346,groupA
0.43952516647200346,groupB
0.43952516647200346,groupB
0.43952516647200346,groupB
0.43952516647200346,groupA
0.43952516647200346,groupA
0.43952516647200346,groupB
0.43952516647200346,groupA
0.43952516647200346,groupA
0.43952516647200346,groupB
0.43952516647200346,groupB
0.43952516647200346,groupB
0.43952516647200346,groupB
0.43952516647200346,groupB
0.43952516647200346,groupA
0.43952516647200346,groupB
0.43952516647200346,groupA
0.43952516647200346,groupA
0.43952516647200346,groupB
0.43952516647200346,groupB
0.43952516647200346,groupB
0.43952516647200346,groupA
0.43952516647200346,groupA
0.43952516647200346,groupA
0.43952516647200346,groupA
0.43952516647200346,groupA
0.43952516647200346,groupB
0.43952516647200346,groupB
0.43952516647200346,groupA
0.43952516647200346,groupB
0.43952516647200346,groupB
0.43952516647200346,groupB
0.43952516647200346,groupB
0.43952516647200346,groupB
0.43952516647200346,groupA
0.43952516647200346,groupB
0.43952516647200346,groupA
0.43952516647200346,groupB
0.43952516647200346,groupB
0.43952516647200346,groupB
0.43952516647200346,groupB
0.43952516647200346,groupA
0.43952516647200346,groupB
0.43952516647200346,groupA
0.43952516647200346,groupA
0.43952516647200346,groupA
0.43952516647200346,groupB
0.43952516647200346,groupA
0.43952516647200346,groupA
0.43952516647200346,groupA
0.43952516647200346,groupB
0.43952516647200346,groupB
0.43952516647200346,groupA
0.43952516647200346,groupA
0.43952516647200346,groupB
0.43952516647200346,groupB
0.43952516647200346,groupA
0.43952516647200346,groupA
0.43952516647200346,groupB
0.43952516647200346,groupA
0.43952516647200346,groupA
0.43952516647200346,groupB
0.43952516647200346,groupB
0.43952516647200346,groupB
0.43952516647200346,groupB
0.43952516647200346,groupB
0.43952516647200346,groupA
0.43952516647200346,groupB
0.43952516647200346,groupA
0.43952516647200346,groupA
0.43952516647200346,groupA
0.43952516647200346,groupB
0.43952516647200346,groupB
0.43952516647200346,groupB
0.43952516647200346,groupB
0.43952516647200346,groupB
0.43952516647200346,groupA
0.43952516647200346,groupB
0.43952516647200346,groupB
0.43952516647200346,groupA
0.43952516647200346,groupA
0.43952516647200346,groupB
0.43952516647200346,groupB
0.43952516647200346,groupB
0.43952516647200346,groupB
0.43952516647200346,groupA
0.43952516647200346,groupB
0.43952516647200346,groupA
0.43952516647200346,groupB
0.43952516647200346,groupB
0.43952516647200346,groupB
0.43952516647200346,groupA
0.43952516647200346,groupB
0.43952516647200346,groupB
0.43952516647200346,groupB
0.43952516647200346,groupB
0.43952516647200346,groupA
0.43952516647200346,groupA
0.43952516647200346,groupA
0.43952516647200346,groupA
0.43952516647200346,groupB
0.43952516647200346,groupB
0.43952516647200346,groupB
0.43952516647200346,groupB
0.43952516647200346,groupB
0.43952516647200346,groupB
0.43952516647200346,groupB
0.43952516647200346,groupB
0.43952516647200346,groupB
0.43952516647200346,groupA
0.43952516647200346,groupA
0.43952516647200346,groupB
0.43952516647200346,groupA
0.43952516647200346,groupB
0.43952516647200346,groupA
0.43952516647200346,groupA
0.43952516647200346,groupB
0.43952516647200346,groupB
0.43952516647200346,groupB
0.43952516647200346,groupB
0.43952516647200346,groupB
0.43952516647200346,groupB
0.43952516647200346,groupB
0.43952516647200346,groupA
0.43952516647200346,groupB
0.43952516647200346,groupB
0.43952516647200346,groupB
0.43952516647200346,groupA
0.43952516647200346,groupA
0.43952516647200346,groupA
0.43952516647200346,groupA
0.43952516647200346,groupA
0.43952516647200346,groupB
0.43952516647200346,groupA
0.43952516647200346,groupA
0.43952516647200346,groupA
0.43952516647200346,groupB
0.43952516647200346,groupA
0.43952516647200346,groupA
0.43952516647200346,groupB
0.43952516647200346,groupB
0.43952516647200346,groupA
0.43952516647200346,groupB
0.43952516647200346,groupA
0.43952516647200346,groupA
0.43952516647200346,groupA
0.43952516647200346,groupB
0.43952516647200346,groupA
0.43952516647200346,groupA
0.43952516647200346,groupB
0.43952516647200346,groupB
0.43952516647200346,groupB
0.43952516647200346,groupB
0.43952516647200346,groupB
0.43952516647200346,groupB
0.43952516647200346,groupA
0.43952516647200346,groupB
0.43952516647200346,groupB
0.43952516647200346,groupB
0.43952516647200346,groupB
0.43952516647200346,groupA
0.43952516647200346,groupB
0.43952516647200346,groupB
0.43952516647200346,groupB
0.43952516647200346,groupA
0.43952516647200346,groupA
0.43952516647200346,groupB
0.43952516647200346,groupA
0.43952516647200346,groupB
0.43952516647200346,groupB
0.43952516647200346,groupA
0.43952516647200346,groupB
0.43952516647200346,groupA
0.43952516647200346,groupA
0.43952516647200346,groupB
0.43952516647200346,groupA
0.43952516647200346,groupB
0.43952516647200346,groupB
0.43952516647200346,groupB
0.43952516647200346,groupA
0.43952516647200346,groupB
0.43952516647200346,groupA
0.43952516647200346,groupA
0.43952516647200346,groupA
0.43952516647200346,groupA
0.43952516647200346,groupA
0.43952516647200346,groupA
0.43952516647200346,groupB
0.43952516647200346,groupB
0.43952516647200346,groupB
0.43952516647200346,groupB
0.43952516647200346,groupB
0.43952516647200346,groupA
0.43952516647200346,groupA
0.43952516647200346,groupB
0.43952516647200346,groupB
0.43952516647200346,groupB
0.43952516647200346,groupA
0.43952516647200346,groupB
0.43952516647200346,groupA
0.43952516647200346,groupB
0.43952516647200346,groupA
0.43952516647200346,groupB
0.43952516647200346,groupB
0.43952516647200346,groupA
0.43952516647200346,groupA
0.43952516647200346,groupB
0.43952516647200346,groupA
0.43952516647200346,groupA
0.43952516647200346,groupB
0.43952516647200346,groupA
0.43952516647200346,groupB
0.43952516647200346,groupB
0.43952516647200346,groupB
0.43952516647200346,groupB
0.43952516647200346,groupA
0.43952516647200346,groupA
0.43952516647200346,groupB
0.43952516647200346,groupA
0.43952516647200346,groupB
0.43952516647200346,groupB
0.43952516647200346,groupA
0.43952516647200346,groupA
0.43952516647200346,groupA
0.43952516647200346,groupB
0.43952516647200346,groupA
0.43952516647200346,groupB
0.43952516647200346,groupA
0.43952516647200346,groupA
0.43952516647200346,groupA
0.43952516647200346,groupB
0.43952516647200346,groupB
0.43952516647200346,groupA
0.43952516647200346,groupA
0.43952516647200346,groupB
0.43952516647200346,groupB
0.43952516647200346,groupB
0.43952516647200346,groupB
0.43952516647200346,groupA
0.43952516647200346,groupA
0.43952516647200346,groupB
0.43952516647200346,groupA
0.43952516647200346,groupB
0.43952516647200346,groupA
0.43952516647200346,groupB
0.43952516647200346,groupB
0.43952516647200346,groupB
0.43952516647200346,groupA
0.43952516647200346,groupA
0.43952516647200346,groupA
0.43952516647200346,groupA
0.43952516647200346,groupB
0.43952516647200346,groupA
0.43952516647200346,groupA
0.43952516647200346,groupA
0.43952516647200346,groupA
0.43952516647200346,groupB
0.43952516647200346,groupA
0.43952516647200346,groupA
0.43952516647200346,groupB
0.43952516647200346,groupB
0.43952516647200346,groupA
0.43952516647200346,groupA
0.43952516647200346,groupB
0.43952516647200346,groupA
0.43952516647200346,groupB
0.43952516647200346,groupB
0.43952516647200346,groupA
0.43952516647200346,groupB
0.43952516647200346,groupB
0.43952516647200346,groupA
0.43952516647200346,groupB
0.43952516647200346,groupA
0.43952516647200346,groupA
0.43952516647200346,groupA
0.43952516647200346,groupB
0.43952516647200346,groupA
0.43952516647200346,groupA
0.43952516647200346,groupB
0.43952516647200346,groupA
0.43952516647200346,groupB
0.43952516647200346,groupB
0.43952516647200346,groupA
0.43952516647200346,groupB
0.43952516647200346,groupA
0.43952516647200346,groupA
0.43952516647200346,groupB
0.43952516647200346,groupB
0.43952516647200346,groupA
0.43952516647200346,groupB
0.43952516647200346,groupA
0.43952516647200346,groupA
0.43952516647200346,groupB
0.43952516647200346,groupA
0.43952516647200346,groupB
0.43952516647200346,groupA
0.43952516647200346,groupB
0.43952516647200346,groupA
0.43952516647200346,groupB
0.43952516647200346,groupA
0.43952516647200346,groupB
0.43952516647200346,groupB
0.43952516647200346,groupA
0.43952516647200346,groupA
0.43952516647200346,groupA
0.43952516647200346,groupB
0.43952516647200346,groupA
0.43952516647200346,groupA
0.43952516647200346,groupB
0.43952516647200346,groupB
0.43952516647200346,groupA
0.43952516647200346,groupB
0.43952516647200346,groupA
0.43952516647200346,groupA
0.43952516647200346,groupA
0.43952516647200346,groupA
0.43952516647200346,groupB
0.43952516647200346,groupA
0.43952516647200346,groupB
0.43952516647200346,groupB
0.43952516647200346,groupB
0.43952516647200346,groupB
0.43952516647200346,groupB
0.43952516647200346,groupB
0.43952516647200346,groupA
0.43952516647200346,groupA
0.43952516647200346,groupB
0.43952516647200346,groupB
0.43952516647200346,groupB
0.43952516647200346,groupB
0.43952516647200346,groupB
0.43952516647200346,groupB
0.43952516647200346,groupA
0.43952516647200346,groupB
0.43952516647200346,groupB
0.43952516647200346,groupA
0.43952516647200346,groupB
0.43952516647200346,groupB
0.43952516647200346,groupB
0.43952516647200346,groupB
0.43952516647200346,groupB
0.43952516647200346,groupB
0.43952516647200346,groupB
0.43952516647200346,groupB
0.43952516647200346,groupA
0.43952516647200346,groupA
0.43952516647200346,groupB
0.43952516647200346,groupB
0.43952516647200346,groupB
0.43952516647200346,groupB
0.43952516647200346,groupB
0.43952516647200346,groupB
0.43952516647200346,groupA
0.43952516647200346,groupB
0.43952516647200346,groupB
0.43952516647200346,groupA
0.43952516647200346,groupA
0.43952516647200346,groupB
0.43952516647200346,groupA
0.43952516647200346,groupB
0.43952516647200346,groupB
0.43952516647200346,groupB
0.43952516647200346,groupB
0.43952516647200346,groupA
0.43952516647200346,groupA
0.43952516647200346,groupA
0.43952516647200346,groupA
0.43952516647200346,groupB
0.43952516647200346,groupA
0.43952516647200346,groupA
0.43952516647200346,groupB
0.43952516647200346,groupB
0.43952516647200346,groupB
0.43952516647200346,groupB
0.43952516647200346,groupA
0.43952516647200346,groupA
0.43952516647200346,groupB
0.43952516647200346,groupA
0.43952516647200346,groupB
0.43952516647200346,groupB
0.43952516647200346,groupB
0.43952516647200346,groupB
0.43952516647200346,groupB
0.43952516647200346,groupA
0.43952516647200346,groupB
0.43952516647200346,groupB
0.43952516647200346,groupA
0.43952516647200346,groupB
0.43952516647200346,groupA
0.43952516647200346,groupB
0.43952516647200346,groupA
0.43952516647200346,groupB
0.43952516647200346,groupB
0.43952516647200346,groupB
0.43952516647200346,groupA
0.43952516647200346,groupB
0.43952516647200346,groupB
0.43952516647200346,groupA
0.43952516647200346,groupB
0.43952516647200346,groupA
0.43952516647200346,groupB
0.43952516647200346,groupB
0.43952516647200346,groupA
0.43952516647200346,groupB
0.43952516647200346,groupB
0.43952516647200346,groupB
0.43952516647200346,groupB
0.43952516647200346,groupB
0.43952516647200346,groupB
0.43952516647200346,groupA
0.43952516647200346,groupA
0.43952516647200346,groupB
0.43952516647200346,groupB
0.43952516647200346,groupB
0.43952516647200346,groupB
0.43952516647200346,groupA
0.43952516647200346,groupB
0.43952516647200346,groupB
0.43952516647200346,groupB
0.43952516647200346,groupB
0.43952516647200346,groupB
0.43952516647200346,groupB
0.43952516647200346,groupA
0.43952516647200346,groupA
0.43952516647200346,groupB
0.43952516647200346,groupB
0.43952516647200346,groupA
0.43952516647200346,groupB
0.43952516647200346,groupB
0.43952516647200346,groupA
0.43952516647200346,groupA
0.43952516647200346,groupB
0.43952516647200346,groupB
0.43952516647200346,groupA
0.43952516647200346,groupA
0.43952516647200346,groupA
0.43952516647200346,groupB
0.43952516647200346,groupA
0.43952516647200346,groupB
0.43952516647200346,groupB
0.43952516647200346,groupB
0.43952516647200346,groupB
0.43952516647200346,groupB
0.43952516647200346,groupA
0.43952516647200346,groupB
0.43952516647200346,groupB
0.43952516647200346,groupA
0.43952516647200346,groupB
0.43952516647200346,groupB
0.43952516647200346,groupA
0.43952516647200346,groupB
0.43952516647200346,groupA
0.43952516647200346,groupA
0.43952516647200346,groupA
0.43952516647200346,groupA
0.43952516647200346,groupB
0.43952516647200346,groupB
0.43952516647200346,groupB
0.43952516647200346,groupA
0.43952516647200346,groupA
0.43952516647200346,groupB
0.43952516647200346,groupA
0.43952516647200346,groupA
0.43952516647200346,groupB
0.43952516647200346,groupB
0.43952516647200346,groupA
0.43952516647200346,groupB
0.43952516647200346,groupA
0.43952516647200346,groupB
0.43952516647200346,groupB
0.43952516647200346,groupB
0.43952516647200346,groupB
0.43952516647200346,groupB
0.43952516647200346,groupA
0.43952516647200346,groupA
0.43952516647200346,groupA
0.43952516647200346,groupA
0.43952516647200346,groupB
0.43952516647200346,groupA
0.43952516647200346,groupA
0.43952516647200346,groupB
0.43952516647200346,groupA
0.43952516647200346,groupA
0.43952516647200346,groupB
0.43952516647200346,groupB
0.43952516647200346,groupA
0.43952516647200346,groupB
0.43952516647200346,groupA
0.43952516647200346,groupA
0.43952516647200346,groupA
0.43952516647200346,groupA
0.43952516647200346,groupB
0.43952516647200346,groupA
0.43952516647200346,groupA
0.43952516647200346,groupB
0.43952516647200346,groupA
0.43952516647200346,groupB
0.43952516647200346,groupB
0.43952516647200346,groupA
0.43952516647200346,groupB
0.43952516647200346,groupB
0.43952516647200346,groupB
0.43952516647200346,groupB
0.43952516647200346,groupA
0.43952516647200346,groupA
0.43952516647200346,groupA
0.43952516647200346,groupB
0.43952516647200346,groupB
0.43952516647200346,groupA
0.43952516647200346,groupB
0.43952516647200346,groupA
0.43952516647200346,groupA
0.43952516647200346,groupA
0.43952516647200346,groupB
0.43952516647200346,groupB
0.43952516647200346,groupB
0.43952516647200346,groupB
0.43952516647200346,groupA
0.43952516647200346,groupB
0.43952516647200346,groupA
0.43952516647200346,groupA
0.43952516647200346,groupB
0.43952516647200346,groupB
0.43952516647200346,groupB
0.43952516647200346,groupB
0.43952516647200346,groupA
0.43952516647200346,groupA
0.43952516647200346,groupA
0.43952516647200346,groupA
0.43952516647200346,groupA
0.43952516647200346,groupB
0.43952516647200346,groupB
0.43952516647200346,groupA
0.43952516647200346,groupA
0.43952516647200346,groupB
0.43952516647200346,groupA
0.43952516647200346,groupB
0.43952516647200346,groupA
0.43952516647200346,groupB
0.43952516647200346,groupB
0.43952516647200346,groupA
0.43952516647200346,groupA
0.43952516647200346,groupA
0.43952516647200346,groupA
0.43952516647200346,groupB
0.43952516647200346,groupB
0.43952516647200346,groupA
0.43952516647200346,groupB
0.43952516647200346,groupA
0.43952516647200346,groupB
0.43952516647200346,groupA
0.43952516647200346,groupA
0.43952516647200346,groupA
0.43952516647200346,groupB
0.43952516647200346,groupB
0.43952516647200346,groupA
0.43952516647200346,groupA
0.43952516647200346,groupA
0.43952516647200346,groupA
0.43952516647200346,groupB
0.43952516647200346,groupA
0.43952516647200346,groupB
0.43952516647200346,groupA
0.43952516647200346,groupB
0.43952516647200346,groupB
0.43952516647200346,groupB
0.43952516647200346,groupA
0.43952516647200346,groupA
0.43952516647200346,groupB
0.43952516647200346,groupA
0.43952516647200346,groupB
0.43952516647200346,groupA
0.43952516647200346,groupB
0.43952516647200346,groupB
0.43952516647200346,groupB
0.43952516647200346,groupB
0.43952516647200346,groupB
0.43952516647200346,groupB
0.43952516647200346,groupA
0.43952516647200346,groupB
0.43952516647200346,groupB
0.43952516647200346,groupB
0.43952516647200346,groupB
0.43952516647200346,groupB
0.43952516647200346,groupA
0.43952516647200346,groupA
0.43952516647200346,groupA
0.43952516647200346,groupB
0.43952516647200346,groupA
0.43952516647200346,groupA
0.43952516647200346,groupA
0.43952516647200346,groupB
0.43952516647200346,groupA
0.43952516647200346,groupA
0.43952516647200346,groupA
0.43952516647200346,groupB
0.43952516647200346,groupA
0.43952516647200346,groupA
0.43952516647200346,groupB
0.43952516647200346,groupB
0.43952516647200346,groupB
0.43952516647200346,groupB
0.43952516647200346,groupA
0.43952516647200346,groupB
0.43952516647200346,groupB
0.43952516647200346,groupA
0.43952516647200346,groupB
0.43952516647200346,groupA
0.43952516647200346,groupA
0.43952516647200346,groupA
0.43952516647200346,groupA
0.43952516647200346,groupA
0.43952516647200346,groupB
0.43952516647200346,groupB
0.43952516647200346,groupB
0.43952516647200346,groupA
0.43952516647200346,groupB
0.43952516647200346,groupB
0.43952516647200346,groupB
0.43952516647200346,groupB
0.43952516647200346,groupA
0.43952516647200346,groupB
0.43952516647200346,groupA
0.43952516647200346,groupA
0.43952516647200346,groupB
0.43952516647200346,groupB
0.43952516647200346,groupA
0.43952516647200346,groupB
0.43952516647200346,groupA
0.43952516647200346,groupA
0.43952516647200346,groupA
0.43952516647200346,groupA
0.43952516647200346,groupB
0.43952516647200346,groupA
0.43952516647200346,groupB
0.43952516647200346,groupA
0.43952516647200346,groupB
0.43952516647200346,groupA
0.43952516647200346,groupB
0.43952516647200346,groupA
0.43952516647200346,groupB
0.43952516647200346,groupB
0.43952516647200346,groupB
0.43952516647200346,groupB
0.43952516647200346,groupA
0.43952516647200346,groupA
0.43952516647200346,groupA
0.43952516647200346,groupB
0.43952516647200346,groupB
0.43952516647200346,groupB
0.43952516647200346,groupA
0.43952516647200346,groupB
0.43952516647200346,groupA
0.43952516647200346,groupB
0.43952516647200346,groupB
0.43952516647200346,groupA
0.43952516647200346,groupA
0.43952516647200346,groupA
0.43952516647200346,groupA
0.43952516647200346,groupB
0.43952516647200346,groupB
0.43952516647200346,groupB
0.43952516647200346,groupB
0.43952516647200346,groupB
0.43952516647200346,groupB
0.43952516647200346,groupA
0.43952516647200346,groupA
0.43952516647200346,groupB
0.43952516647200346,groupB
0.43952516647200346,groupB
0.43952516647200346,groupA
0.43952516647200346,groupB
0.43952516647200346,groupA
0.43952516647200346,groupB
0.43952516647200346,groupB
0.43952516647200346,groupA
0.43952516647200346,groupA
0.43952516647200346,groupB
0.43952516647200346,groupA
0.43952516647200346,groupA
0.43952516647200346,groupB
0.43952516647200346,groupB
0.43952516647200346,groupA
0.43952516647200346,groupB
0.43952516647200346,groupA
0.43952516647200346,groupA
0.43952516647200346,groupB
0.43952516647200346,groupB
0.43952516647200346,groupA
0.43952516647200346,groupB
0.43952516647200346,groupB
0.43952516647200346,groupA
0.43952516647200346,groupA
0.43952516647200346,groupB
0.43952516647200346,groupA
0.43952516647200346,groupB
0.43952516647200346,groupA
0.43952516647200346,groupB
0.43952516647200346,groupA
0.43952516647200346,groupB
0.43952516647200346,groupB
0.43952516647200346,groupB
0.43952516647200346,groupB
0.43952516647200346,groupA
0.43952516647200346,groupA
0.43952516647200346,groupB
0.43952516647200346,groupA
0.43952516647200346,groupB
0.43952516647200346,groupB
0.43952516647200346,groupB
0.43952516647200346,groupB
0.43952516647200346,groupA
0.43952516647200346,groupB
0.43952516647200346,groupA
0.43952516647200346,groupB
0.43952516647200346,groupA
0.43952516647200346,groupB
0.43952516647200346,groupA
0.43952516647200346,groupB
0.43952516647200346,groupA
0.43952516647200346,groupB
0.43952516647200346,groupB
0.43952516647200346,groupA
0.43952516647200346,groupA
0.43952516647200346,groupA
0.43952516647200346,groupA
0.43952516647200346,groupA
0.43952516647200346,groupB
0.43952516647200346,groupA
0.43952516647200346,groupA
0.43952516647200346,groupB
0.43952516647200346,groupB
0.43952516647200346,groupB
0.43952516647200346,groupB
0.43952516647200346,groupB
0.43952516647200346,groupB
0.43952516647200346,groupB
0.43952516647200346,groupA
0.43952516647200346,groupA
0.43952516647200346,groupB
0.43952516647200346,groupB
0.43952516647200346,groupA
0.43952516647200346,groupA
0.43952516647200346,groupA
0.43952516647200346,groupB
0.43952516647200346,groupB
0.43952516647200346,groupB
0.43952516647200346,groupA
0.43952516647200346,groupA
0.43952516647200346,groupB
0.43952516647200346,groupB
0.43952516647200346,groupB
0.43952516647200346,groupB
0.43952516647200346,groupB
0.43952516647200346,groupA
0.43952516647200346,groupA
0.43952516647200346,groupA
0.43952516647200346,groupB
0.43952516647200346,groupB
0.43952516647200346,groupA
0.43952516647200346,groupA
0.43952516647200346,groupA
0.43952516647200346,groupB
0.43952516647200346,groupA
0.43952516647200346,groupA
0.43952516647200346,groupA
0.43952516647200346,groupB
0.43952516647200346,groupB
0.43952516647200346,groupA
0.43952516647200346,groupB
0.43952516647200346,groupB
0.43952516647200346,groupA
0.43952516647200346,groupB
0.43952516647200346,groupA
0.43952516647200346,groupB
0.43952516647200346,groupA
0.43952516647200346,groupB
0.43952516647200346,groupB
0.43952516647200346,groupB
0.43952516647200346,groupA
0.43952516647200346,groupB
0.43952516647200346,groupA
0.43952516647200346,groupB
0.43952516647200346,groupA
0.43952516647200346,groupB
0.43952516647200346,groupA
0.43952516647200346,groupA
0.43952516647200346,groupA
0.43952516647200346,groupB
0.43952516647200346,groupB
0.43952516647200346,groupA
0.43952516647200346,groupA
0.43952516647200346,groupA
0.43952516647200346,groupA
0.43952516647200346,groupA
0.43952516647200346,groupB
0.43952516647200346,groupB
0.43952516647200346,groupA
0.43952516647200346,groupA
0.43952516647200346,groupB
0.43952516647200346,groupA
0.43952516647200346,groupA
0.43952516647200346,groupB
0.43952516647200346,groupA
0.43952516647200346,groupA
0.43952516647200346,groupB
0.43952516647200346,groupB
0.43952516647200346,groupB
0.43952516647200346,groupA
0.43952516647200346,groupB
0.43952516647200346,groupA
0.43952516647200346,groupA
0.43952516647200346,groupB
0.43952516647200346,groupB
0.43952516647200346,groupB
0.43952516647200346,groupA
0.43952516647200346,groupB
0.43952516647200346,groupA
0.43952516647200346,groupB
0.43952516647200346,groupB
0.43952516647200346,groupA
0.43952516647200346,groupB
0.43952516647200346,groupB
0.43952516647200346,groupB
0.43952516647200346,groupB
0.43952516647200346,groupB
0.43952516647200346,groupA
0.43952516647200346,groupB
0.43952516647200346,groupA
0.43952516647200346,groupB
0.43952516647200346,groupB
0.43952516647200346,groupA
0.43952516647200346,groupA
0.43952516647200346,groupA
0.43952516647200346,groupB
0.43952516647200346,groupA
0.43952516647200346,groupB
0.43952516647200346,groupB
0.43952516647200346,groupB
0.43952516647200346,groupA
0.43952516647200346,groupA
0.43952516647200346,groupA
0.43952516647200346,groupA
0.43952516647200346,groupA
0.43952516647200346,groupA
0.43952516647200346,groupA
0.43952516647200346,groupA
0.43952516647200346,groupA
0.43952516647200346,groupA
0.43952516647200346,groupA
0.43952516647200346,groupA
0.43952516647200346,groupA
0.43952516647200346,groupB
0.43952516647200346,groupA
0.43952516647200346,groupA
0.43952516647200346,groupB
0.43952516647200346,groupB
0.43952516647200346,groupB
0.43952516647200346,groupB
0.43952516647200346,groupA
0.43952516647200346,groupB
0.43952516647200346,groupA
0.43952516647200346,groupB
0.43952516647200346,groupB
0.43952516647200346,groupB
0.43952516647200346,groupB
0.43952516647200346,groupA
